Pd   H                                  
   1.00000000000000     
     4.0394805181502846    0.0000000000000000    0.0000000000000000
    -0.0923531127465265    4.0385963955691446    0.0000000000000000
    -0.0923581181173091   -0.0932262670213582    4.0377124676040896
   Pd   H 
     4     1
S
Direct
  0.9993070151601486  0.9993070151601486  0.9993070151601486 F F F
  0.9848483824985479  0.5033765802835148  0.5033765802835148 F F F
  0.5033765802835148  0.9848483824985479  0.5033765802835148 F F F
  0.5033765802835148  0.5033765802835148  0.9848483824985479 F F F
  0.3513250619722399  0.3513250619722399  0.3513250619722399 T T T
 
  0.00000000E+00  0.00000000E+00  0.00000000E+00
  0.00000000E+00  0.00000000E+00  0.00000000E+00
  0.00000000E+00  0.00000000E+00  0.00000000E+00
  0.00000000E+00  0.00000000E+00  0.00000000E+00
  0.00000000E+00  0.00000000E+00  0.00000000E+00
