Pt\(3)\(0\0\1)
1.0
       20.0         0.0000000000         0.0000000000
        0.0000000000        20.0         0.0000000000
        0.0000000000         0.0000000000      20.0
   Pt
   13
Cartesian
     3.923860788         5.885849953         2.243782997
     5.885849953         3.923860788         2.243782997
     7.847839355         5.885849953         2.243782997
     1.961989164         7.847839355         2.243782997
     5.885849953         7.847839355         2.243782997
     9.809710503         7.847839355         2.243782997
     5.885849953         5.885849953         0.000000000
     3.923860788         5.885849953         4.919915199
     5.885849953         3.923860788         4.919915199
     7.847839355         5.885849953         4.919915199
     1.961989164         7.847839355         4.919915199
     5.885849953         7.847839355         4.919915199
     9.809710503         7.847839355         4.919915199
