Pd   H 
1
   4.0271103905991001   0.0000000000000000   0.0000000000000000
   0.0000000000000000   4.0271103905991001   0.0000000000000000
   0.0000000000000000   0.0000000000000000   4.0271103905991001
Pd   H 
4  1  
Direct
  0.9959926710702121  0.9959926710702121  0.9959926710702121  
  0.9254184522059180  0.5334452088682941  0.5334452088682941  
  0.5334452088682941  0.9254184522059180  0.5334452088682941  
  0.5334452088682941  0.5334452088682941  0.9254184522059180  
  0.3616984589872840  0.3616984589872840  0.3616984589872840  
