Pd
1.0
        3.8907001019         0.0000000000         0.0000000000
        0.0000000000         3.8907001019         0.0000000000
        0.0000000000         0.0000000000         3.8907001019
   Pd
    4
Direct
     0.000000000         0.000000000         0.000000000
     0.000000000         0.500000000         0.500000000
     0.500000000         0.000000000         0.500000000
     0.500000000         0.500000000         0.000000000
