Ag                                      
   1.00000000000000     
     2.9413560533150944   -0.0000000000000000    0.0000000000000000
     1.4706780266575472    2.5472890637400041   -0.0000000000006407
     1.4706780266575472    0.8490963545454598    2.4016071608290530
   Ag
     1
Direct
 -0.0000000000000000  0.0000000000000000 -0.0000000000000000
 
  0.00000000E+00  0.00000000E+00  0.00000000E+00
