CONTCAR\(1\1\0)\(0\0\1)
1.0
        3.9851000309         0.0000000000         0.0000000000
        0.0000000000         2.8178999424         0.0000000000
        0.0000000000         0.0000000000        24.8624992371
   Pt
    5
Selective
Cartesian
     0.000000000         0.000000000         1.408957839      F F F
     1.992550015         1.408949971         2.817915678      T T T
     0.000000000         0.000000000         4.226873398      T T T
     1.992550015         1.408949971         5.635831356      T T T
     1.992550015         1.408949971         0.000000000      F F F

