CONTCAR\(1\1\1)\(0\0\1)
1.0
        2.5708000660         0.0000000000         0.0000000000
       -1.2854000330         2.2263781652         0.0000000000
        0.0000000000         0.0000000000        18.0000000000
   Cu
    4
S
Direct
     0.000000000         0.000000000         0.000000000 F F F
     0.000000000         0.000000000         0.349839979 T T T
     0.333330009         0.666670033         0.116609997 F F F
     0.666670013         0.333330010         0.233230008 T T T

