Mn2 Bi2
1.0
4.320043 0.000000 0.000000
-2.160021 3.741267 0.000000
0.000000 0.000000 5.745016
Mn Bi
2 2
direct
0.000000 0.000000 0.000000 Mn
0.000000 0.000000 0.500000 Mn
0.333333 0.666667 0.250000 Bi
0.666667 0.333333 0.750000 Bi

