Nanocluster\(0\0\1)  3 dui chen         
1.0
       20.0000000000         0.0000000000         0.0000000000
        0.0000000000        20.0000000000         0.0000000000
        0.0000000000         0.0000000000        20.0000000000
   Pt
   13
Cartesian
     4.621228218         3.939780712         0.727644086
     6.407629490         2.422978878         1.841706991
     8.505703926         2.585920334         3.258635521
     6.912852287         4.910788059         1.445541620
     5.848603249         5.513543606         3.657350540
     8.013771057         4.774278641         4.676952362
     3.684560776         4.334562302         3.086077690
     6.955768108         0.774547875         4.198152065
     8.066114426         2.365268946         5.926180363
     5.214627743         2.584020615         4.043721199
     3.995696068         5.376184464         5.455878258
     5.962779999         3.851594925         6.090594769
     9.249055862         4.896036625         2.427760839

