Pd   H 
1
   4.0225903201579696   0.0000000000000000   0.0000000000000000
   0.0000000000000000   4.0225903201579696   0.0000000000000000
   0.0000000000000000   0.0000000000000000   4.0225903201579696
Pd   H 
4  1  
Direct
  0.9973284473801410  0.9973284473801410  0.9973284473801410  
  0.9403280630818860  0.5150612582114820  0.5150612582114820  
  0.5150612582114820  0.9403280630818860  0.5150612582114820  
  0.5150612582114820  0.5150612582114820  0.9403280630818860  
  0.4322209731150010  0.4322209731150010  0.4322209731150010  
