Pd
   1.00000000000000     
   7.9120001792999997   0.0000000000000000   0.0000000000000000
   0.0000000000000000   7.9120001792999997   0.0000000000000000
   0.0000000000000000   0.0000000000000000  23.9340000153000005
Pd
33  
Selective dynamics
Direct
  0.0000000000000000  0.2500000000000000  0.0000000000000000 F F F
  0.2500000000000000  0.0000000000000000  0.0000000000000000 F F F
  0.5000000000000000  0.2500000000000000  0.0000000000000000 F F F
  0.7500000000000000  0.0000000000000000  0.0000000000000000 F F F
  0.0000000000000000  0.7500000000000000  0.0000000000000000 F F F
  0.2500000000000000  0.5000000000000000  0.0000000000000000 F F F
  0.5000000000000000  0.7500000000000000  0.0000000000000000 F F F
  0.7500000000000000  0.5000000000000000  0.0000000000000000 F F F
  0.0000000000000000  0.0000000000000000  0.0826399999999978 F F F
  0.2500000000000000  0.2500000000000000  0.0826399999999978 F F F
  0.5000000000000000  0.0000000000000000  0.0826399999999978 F F F
  0.7500000000000000  0.2500000000000000  0.0826399999999978 F F F
  0.0000000000000000  0.5000000000000000  0.0826399999999978 F F F
  0.2500000000000000  0.7500000000000000  0.0826399999999978 F F F
  0.5000000000000000  0.5000000000000000  0.0826399999999978 F F F
  0.7500000000000000  0.7500000000000000  0.0826399999999978 F F F
  0.0000000000000000  0.2500000000000000  0.1647857251958196 T T T
  0.2494741820330142  0.9994741820330140  0.1643575037166449 T T T
  0.5000000000000000  0.2500000000000000  0.1657513123496738 T T T
  0.7505258179669859  0.9994741820330140  0.1643575037166449 T T T
  0.0000000000000000  0.7500000000000000  0.1638618056329898 T T T
  0.2494741820330142  0.5005258179669861  0.1643575037166449 T T T
  0.5000000000000000  0.7500000000000000  0.1647857251958196 T T T
  0.7505258179669859  0.5005258179669861  0.1643575037166449 T T T
  0.0000000000000000  0.9970660231130020  0.2461748244145288 T T T
  0.2415814128427123  0.2500000000000000  0.2459508463659832 T T T
  0.5000000000000000  0.9915814128427120  0.2459508463659832 T T T
  0.7584185871572875  0.2500000000000000  0.2459508463659832 T T T
  0.0000000000000000  0.5029339768869981  0.2461748244145288 T T T
  0.2470660231130017  0.7500000000000000  0.2461748244145288 T T T
  0.7529339768869983  0.7500000000000000  0.2461748244145288 T T T
  0.5000000000000000  0.5084185871572874  0.2459508463659832 T T T
  0.5000000000000000  0.2500000000000000  0.3168700503226091 T T T
