siCONCAR ini 0 0 0 -> fin 0.125 0.125 0.
   1.00000000000000     
    10.8951957774340400    0.0000000000000000    0.0000000000000000
    -0.0000000000000000   10.8951957774340400    0.0000000000000000
     0.0000000000000000   -0.0000000000000000   10.8951957774340400
   Si
    63
Direct
  0.0094626489285307  0.0094626489285307  0.0094626489285307
  0.0094626489285307  0.2405373510714693  0.2405373510714693
  0.2405373510714693  0.2405373510714693  0.0094626489285307
  0.2405373510714693  0.0094626489285307  0.2405373510714693
  0.3712174058076411  0.1246292903646538  0.3712174058076411
  0.1246292903646538  0.3712174058076411  0.3712174058076411
  0.3712174058076411  0.3712174058076412  0.1246292903646538
  0.4992467561871304  0.0002748982593789  0.0002748982593789
  0.4992467561871304  0.2497251017406212  0.2497251017406212
  0.7507532218128677  0.2497251017406212  0.0002748982593789
  0.7507532218128677  0.0002748982593789  0.2497251017406212
  0.8787825721923641  0.1253707096353462  0.3712174058076411
  0.6250000109999974  0.1250000000000000  0.1250000000000000
  0.6251618688003597  0.3744683989119661  0.3744683989119660
  0.8787825721923641  0.3712174058076411  0.1253707096353462
  0.0002748982593789  0.4992467561871304  0.0002748982593789
  0.0002748982593789  0.7507532218128677  0.2497251017406212
  0.2497251017406212  0.7507532218128677  0.0002748982593789
  0.2497251017406212  0.4992467561871304  0.2497251017406212
  0.3744683989119660  0.6251618688003597  0.3744683989119660
  0.1250000000000000  0.6250000109999974  0.1250000000000000
  0.1253707096353462  0.8787825721923641  0.3712174058076411
  0.3712174058076412  0.8787825721923641  0.1253707096353462
  0.4986524899989982  0.4986524899989982  0.0001232797173070
  0.4986524899989982  0.7513474880009999  0.2498767202826930
  0.7513474880009999  0.7513474880009999  0.0001232797173070
  0.7513474880009999  0.4986524899989982  0.2498767202826930
  0.8755315790880390  0.6248381531996350  0.3744683989119660
  0.6250000109999974  0.6250000109999974  0.1250000000000000
  0.6248381531996350  0.8755315790880390  0.3744683989119660
  0.8787825721923641  0.8787825721923641  0.1246292903646538
  0.0002748982593789  0.0002748982593789  0.4992467561871304
  0.0002748982593789  0.2497251017406212  0.7507532218128677
  0.2497251017406212  0.2497251017406212  0.4992467561871304
  0.2497251017406212  0.0002748982593789  0.7507532218128677
  0.3712174058076412  0.1253707096353462  0.8787825721923641
  0.1250000000000000  0.1250000000000000  0.6250000109999974
  0.1253707096353462  0.3712174058076411  0.8787825721923641
  0.3744683989119660  0.3744683989119660  0.6251618688003597
  0.4986524899989982  0.0001232797173070  0.4986524899989982
  0.4986524899989982  0.2498767202826930  0.7513474880009999
  0.7513474880009999  0.2498767202826930  0.4986524899989982
  0.7513474880009999  0.0001232797173070  0.7513474880009999
  0.8787825721923641  0.1246292903646538  0.8787825721923641
  0.6250000109999974  0.1250000000000000  0.6250000109999974
  0.6248381531996350  0.3744683989119661  0.8755315790880390
  0.8755315790880390  0.3744683989119661  0.6248381531996350
  0.0001232797173070  0.4986524899989982  0.4986524899989982
  0.0001232797173070  0.7513474880009999  0.7513474880009999
  0.2498767202826930  0.7513474880009999  0.4986524899989982
  0.2498767202826930  0.4986524899989982  0.7513474880009999
  0.3744683989119660  0.6248381531996350  0.8755315790880390
  0.1250000000000000  0.6250000109999974  0.6250000109999974
  0.1246292903646538  0.8787825721923641  0.8787825721923641
  0.3744683989119660  0.8755315790880390  0.6248381531996350
  0.4999543476382194  0.4999543476382194  0.4999543476382194
  0.4999543476382194  0.7500456303617787  0.7500456303617787
  0.7500456303617787  0.7500456303617787  0.4999543476382194
  0.7500456303617787  0.4999543476382194  0.7500456303617787
  0.8755315790880390  0.6251618688003597  0.8755315790880390
  0.6250000109999974  0.6250000109999974  0.6250000109999974
  0.6251618688003597  0.8755315790880390  0.8755315790880390
  0.8755315790880390  0.8755315790880390  0.6251618688003597
 
  0.00000000E+00  0.00000000E+00  0.00000000E+00
  0.00000000E+00  0.00000000E+00  0.00000000E+00
  0.00000000E+00  0.00000000E+00  0.00000000E+00
  0.00000000E+00  0.00000000E+00  0.00000000E+00
  0.00000000E+00  0.00000000E+00  0.00000000E+00
  0.00000000E+00  0.00000000E+00  0.00000000E+00
  0.00000000E+00  0.00000000E+00  0.00000000E+00
  0.00000000E+00  0.00000000E+00  0.00000000E+00
  0.00000000E+00  0.00000000E+00  0.00000000E+00
  0.00000000E+00  0.00000000E+00  0.00000000E+00
  0.00000000E+00  0.00000000E+00  0.00000000E+00
  0.00000000E+00  0.00000000E+00  0.00000000E+00
  0.00000000E+00  0.00000000E+00  0.00000000E+00
  0.00000000E+00  0.00000000E+00  0.00000000E+00
  0.00000000E+00  0.00000000E+00  0.00000000E+00
  0.00000000E+00  0.00000000E+00  0.00000000E+00
  0.00000000E+00  0.00000000E+00  0.00000000E+00
  0.00000000E+00  0.00000000E+00  0.00000000E+00
  0.00000000E+00  0.00000000E+00  0.00000000E+00
  0.00000000E+00  0.00000000E+00  0.00000000E+00
  0.00000000E+00  0.00000000E+00  0.00000000E+00
  0.00000000E+00  0.00000000E+00  0.00000000E+00
  0.00000000E+00  0.00000000E+00  0.00000000E+00
  0.00000000E+00  0.00000000E+00  0.00000000E+00
  0.00000000E+00  0.00000000E+00  0.00000000E+00
  0.00000000E+00  0.00000000E+00  0.00000000E+00
  0.00000000E+00  0.00000000E+00  0.00000000E+00
  0.00000000E+00  0.00000000E+00  0.00000000E+00
  0.00000000E+00  0.00000000E+00  0.00000000E+00
  0.00000000E+00  0.00000000E+00  0.00000000E+00
  0.00000000E+00  0.00000000E+00  0.00000000E+00
  0.00000000E+00  0.00000000E+00  0.00000000E+00
  0.00000000E+00  0.00000000E+00  0.00000000E+00
  0.00000000E+00  0.00000000E+00  0.00000000E+00
  0.00000000E+00  0.00000000E+00  0.00000000E+00
  0.00000000E+00  0.00000000E+00  0.00000000E+00
  0.00000000E+00  0.00000000E+00  0.00000000E+00
  0.00000000E+00  0.00000000E+00  0.00000000E+00
  0.00000000E+00  0.00000000E+00  0.00000000E+00
  0.00000000E+00  0.00000000E+00  0.00000000E+00
  0.00000000E+00  0.00000000E+00  0.00000000E+00
  0.00000000E+00  0.00000000E+00  0.00000000E+00
  0.00000000E+00  0.00000000E+00  0.00000000E+00
  0.00000000E+00  0.00000000E+00  0.00000000E+00
  0.00000000E+00  0.00000000E+00  0.00000000E+00
  0.00000000E+00  0.00000000E+00  0.00000000E+00
  0.00000000E+00  0.00000000E+00  0.00000000E+00
  0.00000000E+00  0.00000000E+00  0.00000000E+00
  0.00000000E+00  0.00000000E+00  0.00000000E+00
  0.00000000E+00  0.00000000E+00  0.00000000E+00
  0.00000000E+00  0.00000000E+00  0.00000000E+00
  0.00000000E+00  0.00000000E+00  0.00000000E+00
  0.00000000E+00  0.00000000E+00  0.00000000E+00
  0.00000000E+00  0.00000000E+00  0.00000000E+00
  0.00000000E+00  0.00000000E+00  0.00000000E+00
  0.00000000E+00  0.00000000E+00  0.00000000E+00
  0.00000000E+00  0.00000000E+00  0.00000000E+00
  0.00000000E+00  0.00000000E+00  0.00000000E+00
  0.00000000E+00  0.00000000E+00  0.00000000E+00
  0.00000000E+00  0.00000000E+00  0.00000000E+00
  0.00000000E+00  0.00000000E+00  0.00000000E+00
  0.00000000E+00  0.00000000E+00  0.00000000E+00
  0.00000000E+00  0.00000000E+00  0.00000000E+00
