Cu   Ag
   1.00000000000000     
   7.7123999595999999   0.0000000000000000   0.0000000000000000
  -3.8561999798000000   6.6791342891000003   0.0000000000000000
   0.0000000000000000   0.0000000000000000  24.2971992493000002
Cu   Ag
36  1  
Selective dynamics
Direct
  0.3333305525354080  0.6666695204645950  0.9999811661402800 F F F
  0.3333315515646830  0.9999996753393110  0.9999812719808430 F F F
  0.0000003386606906  0.6666685074353180  0.9999812719808430 F F F
  0.0000010634884262  0.9999989365115740  0.9999813717773450 F F F
  0.3333337411815340  0.3333335808257800  0.9999816025010870 F F F
  0.6666664531742230  0.6666663118184670  0.9999816025010870 F F F
  0.6666655004715950  0.9999985534387010  0.9999816611816290 F F F
  0.0000014405612987  0.3333345195284070  0.9999816611816290 F F F
  0.6666686380171289  0.3333313919828740  0.9999818692555490 F F F
  0.4444423232092660  0.2222230080111490  0.0865400182352687 F F F
  0.7777769979888520  0.5555576737907370  0.0865400182352687 F F F
  0.1111084043854260  0.5555577238153550  0.0865400267559835 F F F
  0.4444422781846460  0.8888916426145740  0.0865400267559835 F F F
  0.4444415944884670  0.5555583925115360  0.0865401540706898 F F F
  0.7777788178657590  0.2222211671342440  0.0865401715436818 F F F
  0.1111094507313270  0.8888906112686710  0.0865404629002100 F F F
  0.1111099140269050  0.2222221875401760  0.0865406647606477 F F F
  0.7777778334598220  0.8888901429730960  0.0865406647606477 F F F
  0.2512432400006330  0.0820888535664466  0.1735500992097980 T T T
  0.9184961117141200  0.7494934528145480  0.1742038680578300 T T T
  0.9185738750628120  0.0821233544882531  0.1741248129960200 T T T
  0.2507696502842260  0.7487996292253740  0.1741498366795820 T T T
  0.5838428011565000  0.4148356397467840  0.1742043787477880 T T T
  0.5845369537410360  0.0825599302354689  0.1741499814672810 T T T
  0.9179648415932460  0.4153690792072600  0.1745826385154170 T T T
  0.2512090992496430  0.4147590404372890  0.1741252576609610 T T T
  0.5843398758358450  0.7489948379164840  0.1741791855393800 T T T
  0.3653385594262840  0.6342618206100989  0.2595984987299150 T T T
  0.3670452647643500  0.9662907123313000  0.2592244426362810 T T T
  0.0320530543329696  0.6349963311147920  0.2602635152337380 T T T
  0.3673480813439200  0.3037990929581580  0.2597233239450320 T T T
  0.6985476283270270  0.6347851366774290  0.2593610611393440 T T T
  0.0295335797179561  0.9659865679846080  0.2597235546693140 T T T
  0.6990753148499070  0.9679931822166520  0.2595990960041450 T T T
  0.0310207188903533  0.3023104910212810  0.2600033423717390 T T T
  0.6983386998311190  0.3012760406397490  0.2602640102750940 T T T
  0.2218429654197610  0.1114868306768950  0.3461634911134300 T T T
