C    N    H 
   1.00000000000000     
  20.0000000000000000   0.0000000000000000   0.0000000000000000
   0.0000000000000000  20.0000000000000000   0.0000000000000000
   0.0000000000000000   0.0000000000000000  20.0000000000000000
C    N    H 
1  1  1  
Direct
  0.4999837527734390  0.5000000000000000  0.4511784732122170  
  0.5096416833918700  0.5000000000000000  0.5001600667408400  
  0.4910412305013590  0.5000000000000000  0.5419947933803040  
