Pd   H 
1
   4.0180702497168399   0.0000000000000000   0.0000000000000000
   0.0000000000000000   4.0180702497168399   0.0000000000000000
   0.0000000000000000   0.0000000000000000   4.0180702497168399
Pd   H 
4  1  
Direct
  0.9986642236900710  0.9986642236900710  0.9986642236900710  
  0.9690814030395170  0.5051361071039220  0.5051361071039220  
  0.5051361071039220  0.9690814030395170  0.5051361071039220  
  0.5051361071039220  0.5051361071039220  0.9690814030395170  
  0.4719821590625840  0.4719821590625840  0.4719821590625840  
