Pd
   1.00000000000000     
   7.9120001792999997   0.0000000000000000   0.0000000000000000
   0.0000000000000000   7.9120001792999997   0.0000000000000000
   0.0000000000000000   0.0000000000000000  23.9340000153000005
Pd
33  
Selective dynamics
Direct
  0.0000000000000000  0.2500000000000000  0.0000000000000000 F F F
  0.2500000000000000  0.0000000000000000  0.0000000000000000 F F F
  0.5000000000000000  0.2500000000000000  0.0000000000000000 F F F
  0.7500000000000000  0.0000000000000000  0.0000000000000000 F F F
  0.0000000000000000  0.7500000000000000  0.0000000000000000 F F F
  0.2500000000000000  0.5000000000000000  0.0000000000000000 F F F
  0.5000000000000000  0.7500000000000000  0.0000000000000000 F F F
  0.7500000000000000  0.5000000000000000  0.0000000000000000 F F F
  0.0000000000000000  0.0000000000000000  0.0826399999999978 F F F
  0.2500000000000000  0.2500000000000000  0.0826399999999978 F F F
  0.5000000000000000  0.0000000000000000  0.0826399999999978 F F F
  0.7500000000000000  0.2500000000000000  0.0826399999999978 F F F
  0.0000000000000000  0.5000000000000000  0.0826399999999978 F F F
  0.2500000000000000  0.7500000000000000  0.0826399999999978 F F F
  0.5000000000000000  0.5000000000000000  0.0826399999999978 F F F
  0.7500000000000000  0.7500000000000000  0.0826399999999978 F F F
  0.0000000000000000  0.2500000000000000  0.1643759864115490 T T T
  0.2494222591636230  0.0000520558209303  0.1643736084969520 T T T
  0.5000000000000000  0.2500000000000000  0.1652816778631770 T T T
  0.7505777408363630  0.0000520558209303  0.1643736084969520 T T T
  0.0000000000000000  0.7500000000000000  0.1643370102189510 T T T
  0.2494222591636230  0.4999479441790700  0.1643736084969520 T T T
  0.5000000000000000  0.7500000000000000  0.1653008001602740 T T T
  0.7505777408363630  0.4999479441790700  0.1643736084969520 T T T
  0.0000000000000000  0.0000526902033116  0.2462608337446990 T T T
  0.2442713593867010  0.2500000000000000  0.2461489863071900 T T T
  0.5000000000000000  0.0001024540723833  0.2459781344376780 T T T
  0.7557286406132990  0.2500000000000000  0.2461489863071900 T T T
  0.0000000000000000  0.4999473097966880  0.2462608337446990 T T T
  0.2442215955176220  0.7500000000000000  0.2460899818751870 T T T
  0.7557784044823780  0.7500000000000000  0.2460899818751870 T T T
  0.5000000000000000  0.6292091623405370  0.2813258131706250 T T T
  0.5000000000000000  0.3706883835870660  0.2814376784663960 T T T
