Cu   Ag
   1.00000000000000     
   7.7123999595999999   0.0000000000000000   0.0000000000000000
  -3.8561999798000000   6.6791342891000003   0.0000000000000000
   0.0000000000000000   0.0000000000000000  24.2971992493000002
Cu   Ag
36  1  
Selective dynamics
Direct
  0.3333305525354078  0.6666695204645947  0.9999811661402802 F F F
  0.3333315515646831  0.9999996753393106  0.9999812719808432 F F F
  0.0000003386606906  0.6666685074353182  0.9999812719808432 F F F
  0.0000010634884262  0.9999989365115738  0.9999813717773448 F F F
  0.3333337411815336  0.3333335808257800  0.9999816025010873 F F F
  0.6666664531742228  0.6666663118184672  0.9999816025010873 F F F
  0.6666655004715949  0.9999985534387008  0.9999816611816286 F F F
  0.0000014405612987  0.3333345195284068  0.9999816611816286 F F F
  0.6666686380171285  0.3333313919828740  0.9999818692555492 F F F
  0.4444423232092660  0.2222230080111487  0.0865400182352687 F F F
  0.7777769979888518  0.5555576737907373  0.0865400182352687 F F F
  0.1111084043854262  0.5555577238153546  0.0865400267559835 F F F
  0.4444422781846455  0.8888916426145741  0.0865400267559835 F F F
  0.4444415944884668  0.5555583925115357  0.0865401540706898 F F F
  0.7777788178657588  0.2222211671342436  0.0865401715436818 F F F
  0.1111094507313268  0.8888906112686712  0.0865404629002100 F F F
  0.1111099140269047  0.2222221875401758  0.0865406647606477 F F F
  0.7777778334598224  0.8888901429730964  0.0865406647606477 F F F
  0.2224214050217499  0.1109106885453299  0.1724509198253145 T T T
  0.8893857587292519  0.7787671815379894  0.1727387208710666 T T T
  0.8884890341111384  0.1109122918081708  0.1724503502496263 T T T
  0.2225259009696408  0.7779282016721246  0.1733088322502783 T T T
  0.5545690724333711  0.4439459927323053  0.1727392315610244 T T T
  0.5554083810089886  0.1108036795500262  0.1733089770379765 T T T
  0.8893869401990847  0.4439469806001348  0.1727378772864258 T T T
  0.2224201619343078  0.4448438813667935  0.1724507949145676 T T T
  0.5554074360583254  0.7779272777212600  0.1733089983581849 T T T
  0.3332043144092525  0.6664089481584090  0.2591242261212165 T T T
  0.3332061647442894  0.0001298123454139  0.2591247104696757 T T T
  0.9996589861267940  0.6664945642355367  0.2581195471385993 T T T
  0.3372666462828671  0.3352964958274496  0.2578794238069765 T T T
  0.6668382976047670  0.6664944673879231  0.2581205725473731 T T T
  0.9980361768656612  0.9960680030313360  0.2578796545307189 T T T
  0.6669281872940369  0.0001274272343095  0.2591248233959226 T T T
  0.9980354653222456  0.3352957445817502  0.2578796636473210 T T T
  0.6668404667006538  0.3336701088473170  0.2581200421799477 T T T
  0.1111161509249955  0.2222159506420850  0.3443791383686562 T T T
