Pd
   1.00000000000000     
   7.9120001792999997   0.0000000000000000   0.0000000000000000
   0.0000000000000000   7.9120001792999997   0.0000000000000000
   0.0000000000000000   0.0000000000000000  23.9340000153000005
Pd
33  
Selective dynamics
Direct
  0.0000000000000000  0.2500000000000000  0.0000000000000000 F F F
  0.2500000000000000  0.0000000000000000  0.0000000000000000 F F F
  0.5000000000000000  0.2500000000000000  0.0000000000000000 F F F
  0.7500000000000000  0.0000000000000000  0.0000000000000000 F F F
  0.0000000000000000  0.7500000000000000  0.0000000000000000 F F F
  0.2500000000000000  0.5000000000000000  0.0000000000000000 F F F
  0.5000000000000000  0.7500000000000000  0.0000000000000000 F F F
  0.7500000000000000  0.5000000000000000  0.0000000000000000 F F F
  0.0000000000000000  0.0000000000000000  0.0826399999999978 F F F
  0.2500000000000000  0.2500000000000000  0.0826399999999978 F F F
  0.5000000000000000  0.0000000000000000  0.0826399999999978 F F F
  0.7500000000000000  0.2500000000000000  0.0826399999999978 F F F
  0.0000000000000000  0.5000000000000000  0.0826399999999978 F F F
  0.2500000000000000  0.7500000000000000  0.0826399999999978 F F F
  0.5000000000000000  0.5000000000000000  0.0826399999999978 F F F
  0.7500000000000000  0.7500000000000000  0.0826399999999978 F F F
  0.0000000000000000  0.2500000000000000  0.1646492689725040 T T T
  0.2494569630442380  0.9996668952633460  0.1643628922375270 T T T
  0.5000000000000000  0.2500000000000000  0.1655947530462500 T T T
  0.7505430369557330  0.9996668952633460  0.1643628922375270 T T T
  0.0000000000000000  0.7500000000000000  0.1640203069725390 T T T
  0.2494569630442380  0.5003331047366540  0.1643628922375270 T T T
  0.5000000000000000  0.7500000000000000  0.1649575402220830 T T T
  0.7505430369557330  0.5003331047366540  0.1643628922375270 T T T
  0.0000000000000000  0.9980618459751800  0.2462034343800350 T T T
  0.2424782366748420  0.2500000000000000  0.2460170219841870 T T T
  0.5000000000000000  0.9944219349033930  0.2459600713610120 T T T
  0.7575217633251580  0.2500000000000000  0.2460170219841870 T T T
  0.0000000000000000  0.5019381540248200  0.2462034343800350 T T T
  0.2461181477466210  0.7500000000000000  0.2461464837568600 T T T
  0.7538818522533790  0.7500000000000000  0.2461464837568600 T T T
  0.5000000000000000  0.5486819372342280  0.2577426309386650 T T T
  0.5000000000000000  0.2902294611956930  0.3050593114088760 T T T
