Pt
1.0
       20.0 0.0 0.0
       0.0 20.0 0.0
       0.0 0.0 20.0
   Pt
   13
Cartesian
     5.549244881         4.805783272         0.000000000
     8.323869705         4.805783272         0.000000000
    11.098495483         4.805783272         0.000000000
     6.936554909         7.208674908         0.000000000
     9.711179733         7.208674908         0.000000000
    12.485805511         7.208674908         0.000000000
    7.049244881        4.805783272        2.265471935
    9.823869705        4.805783272         2.265471935
    8.436554909         7.208674908         2.265471935
    11.21117973         7.208674908         2.265471935
    12.485805511         5.606748581         5.0
      9.0                6.0	             5.0
    5.549244881         4.805783272          5.0        
