Cu   Ag
   1.00000000000000     
   7.7123999595999999   0.0000000000000000   0.0000000000000000
  -3.8561999798000000   6.6791342891000003   0.0000000000000000
   0.0000000000000000   0.0000000000000000  24.2971992493000002
Cu   Ag
36  1  
Selective dynamics
Direct
  0.3333305525354080  0.6666695204645950  0.9999811661402800 F F F
  0.3333315515646830  0.9999996753393110  0.9999812719808430 F F F
  0.0000003386606906  0.6666685074353180  0.9999812719808430 F F F
  0.0000010634884262  0.9999989365115740  0.9999813717773450 F F F
  0.3333337411815340  0.3333335808257800  0.9999816025010870 F F F
  0.6666664531742230  0.6666663118184670  0.9999816025010870 F F F
  0.6666655004715950  0.9999985534387010  0.9999816611816290 F F F
  0.0000014405612987  0.3333345195284070  0.9999816611816290 F F F
  0.6666686380171289  0.3333313919828740  0.9999818692555490 F F F
  0.4444423232092660  0.2222230080111490  0.0865400182352687 F F F
  0.7777769979888520  0.5555576737907370  0.0865400182352687 F F F
  0.1111084043854260  0.5555577238153550  0.0865400267559835 F F F
  0.4444422781846460  0.8888916426145740  0.0865400267559835 F F F
  0.4444415944884670  0.5555583925115360  0.0865401540706898 F F F
  0.7777788178657590  0.2222211671342440  0.0865401715436818 F F F
  0.1111094507313270  0.8888906112686710  0.0865404629002100 F F F
  0.1111099140269050  0.2222221875401760  0.0865406647606477 F F F
  0.7777778334598220  0.8888901429730960  0.0865406647606477 F F F
  0.2584486987453540  0.0748833948217253  0.1738248940559190 T T T
  0.9257736999603380  0.7421750206336880  0.1745701548545210 T T T
  0.9260950853007300  0.0749261201582740  0.1745434286826180 T T T
  0.2578305876128720  0.7415174861136860  0.1743600877869080 T T T
  0.5911612333372820  0.4075580515004020  0.1745706655444790 T T T
  0.5918190969240480  0.0754989929068302  0.1743602325746070 T T T
  0.9251093169417860  0.4082246038590400  0.1750438288226660 T T T
  0.2584063335784780  0.4072378302049130  0.1745438733475590 T T T
  0.5915729857802250  0.7417617279652901  0.1743967323346780 T T T
  0.3733721206805430  0.6262250387230210  0.2597170668820890 T T T
  0.3755050397693650  0.9578309373277700  0.2592493756779320 T T T
  0.0401515713845129  0.6271217728346060  0.2607995072575240 T T T
  0.3748684401091820  0.2959247422408350  0.2601842989795460 T T T
  0.7064749610075940  0.6268578039998050  0.2596711832873380 T T T
  0.0374079304310300  0.9584662092229270  0.2601845297039630 T T T
  0.7071120967388750  0.9599596209622380  0.2597176641561990 T T T
  0.0392670322823818  0.2940641776311640  0.2605342620528430 T T T
  0.7062132581137350  0.2931775235878580  0.2608000022988790 T T T
  0.2495246690434530  0.0838045506855991  0.3466095792996240 T T T
