ISTART=0
ICHARGE=2

ISMEAR=0
SIGMA=0.1 #need test

ENCUT=500

ISIF=2
#some parameter not set
EDIFF=1E-5
EDIFFG=-0.02
NELM=400
NSW=500

LREAL=Auto

#slab
LDIPOL= .TRUE.
IDIPOL=3
LWAVE=.F.
LCHARG=.F.

#neb
IBRION=3
POTIM=0
IOPT=1
ICHAIN=0
LCLIMB=.TRUE. #climbing image
SPRING=-5
IMAGES=5 #image number
