CU 3x3 Ag hcp
   1.00000000000000     
     7.7123999595999999    0.0000000000000000    0.0000000000000000
    -3.8561999798000000    6.6791342891000003    0.0000000000000000
     0.0000000000000000    0.0000000000000000   24.2971992493000002
   Cu   Ag
    36  1
S
Direct
0.333330552535406000	0.666669520464596000	-0.000018833859723200	F	F	F
0.333331551564684000	-0.000000324660687100	-0.000018728019160200	F	F	F
0.000000338660688300	0.666668507435317000	-0.000018728019160200	F	F	F
0.000001063488427300	-0.000001063488427300	-0.000018628222652700	F	F	F
0.333333741181535000	0.333333580825780000	-0.000018397498911600	F	F	F
0.666666453174222000	0.666666311818465000	-0.000018397498911600	F	F	F
0.666665500471593000	-0.000001446561300600	-0.000018338818372500	F	F	F
0.000001440561300000	0.333334519528408000	-0.000018338818372500	F	F	F
0.666668638017126000	0.333331391982876000	-0.000018130744451900	F	F	F
0.444442323209264000	0.222223008011147000	0.086540018235269500	F	F	F
0.777776997988852000	0.555557673790738000	0.086540018235269500	F	F	F
0.111108404385423000	0.555557723815356000	0.086540026755982200	F	F	F
0.444442278184643000	0.888891642614576000	0.086540026755982200	F	F	F
0.444441594488466000	0.555558392511535000	0.086540154070686700	F	F	F
0.777778817865757000	0.222221167134245000	0.086540171543681300	F	F	F
0.111109450731325000	0.888890611268672000	0.086540462900211900	F	F	F
0.111109914026908000	0.222222187540173000	0.086540664760647600	F	F	F
0.777777833459825000	0.888890142973093000	0.086540664760647600	F	F	F
0.222222179540172000	0.111109914026908000	0.172629332239353000	T	T	T
0.888890131973095000	0.777777842459829000	0.172629332239353000	T	T	T
0.888890577268669000	0.111109445731329000	0.172629534099788000	T	T	T
0.222221166134241000	0.777778862865757000	0.172629825456319000	T	T	T
0.555558411511533000	0.444441619488465000	0.172629842929314000	T	T	T
0.555557719815356000	0.111108414385424000	0.172629970244018000	T	T	T
0.888891632614575000	0.444442288184644000	0.172629970244018000	T	T	T
0.222223008011147000	0.444442338209262000	0.172629978764731000	T	T	T
0.555557691790733000	0.777777021988854000	0.172629978764731000	T	T	T
0.333331416982874000	0.666668656017127000	0.259188118744448000	T	T	T
0.333334530528405000	0.000001446561300600	0.259188326818368000	T	T	T
-0.000001432561299400	0.666665528471595000	0.259188326818368000	T	T	T
0.333333585825777000	0.333333736181539000	0.259188385498908000	T	T	T
0.666666297818463000	0.666666467174223000	0.259188385498908000	T	T	T
-0.000001063488427300	0.000001063488427300	0.259188616222649000	T	T	T
0.666668479435314000	0.000000324660687100	0.259188716019156000	T	T	T
0.999999669339312000	0.333331540564686000	0.259188716019156000	T	T	T
0.666669502464594000	0.333330527535407000	0.259188821859719000	T	T	T
0.222222179540172000	0.111109914026908000    0.3350                  T       T       T 
  0.00000000E+00  0.00000000E+00  0.00000000E+00
  0.00000000E+00  0.00000000E+00  0.00000000E+00
  0.00000000E+00  0.00000000E+00  0.00000000E+00
  0.00000000E+00  0.00000000E+00  0.00000000E+00
  0.00000000E+00  0.00000000E+00  0.00000000E+00
  0.00000000E+00  0.00000000E+00  0.00000000E+00
  0.00000000E+00  0.00000000E+00  0.00000000E+00
  0.00000000E+00  0.00000000E+00  0.00000000E+00
  0.00000000E+00  0.00000000E+00  0.00000000E+00
  0.00000000E+00  0.00000000E+00  0.00000000E+00
  0.00000000E+00  0.00000000E+00  0.00000000E+00
  0.00000000E+00  0.00000000E+00  0.00000000E+00
  0.00000000E+00  0.00000000E+00  0.00000000E+00
  0.00000000E+00  0.00000000E+00  0.00000000E+00
  0.00000000E+00  0.00000000E+00  0.00000000E+00
  0.00000000E+00  0.00000000E+00  0.00000000E+00
  0.00000000E+00  0.00000000E+00  0.00000000E+00
  0.00000000E+00  0.00000000E+00  0.00000000E+00
  0.00000000E+00  0.00000000E+00  0.00000000E+00
  0.00000000E+00  0.00000000E+00  0.00000000E+00
  0.00000000E+00  0.00000000E+00  0.00000000E+00
  0.00000000E+00  0.00000000E+00  0.00000000E+00
  0.00000000E+00  0.00000000E+00  0.00000000E+00
  0.00000000E+00  0.00000000E+00  0.00000000E+00
  0.00000000E+00  0.00000000E+00  0.00000000E+00
  0.00000000E+00  0.00000000E+00  0.00000000E+00
  0.00000000E+00  0.00000000E+00  0.00000000E+00
  0.00000000E+00  0.00000000E+00  0.00000000E+00
  0.00000000E+00  0.00000000E+00  0.00000000E+00
  0.00000000E+00  0.00000000E+00  0.00000000E+00
  0.00000000E+00  0.00000000E+00  0.00000000E+00
  0.00000000E+00  0.00000000E+00  0.00000000E+00
  0.00000000E+00  0.00000000E+00  0.00000000E+00
  0.00000000E+00  0.00000000E+00  0.00000000E+00
  0.00000000E+00  0.00000000E+00  0.00000000E+00
  0.00000000E+00  0.00000000E+00  0.00000000E+00

