CONTCAR\(1\0\0)  0.5 0.75 -> 0.25 0.5               
   1.00000000000000     
     7.9120001792999997    0.0000000000000000    0.0000000000000000
     0.0000000000000000    7.9120001792999997    0.0000000000000000
     0.0000000000000000    0.0000000000000000   23.9340000153000005
   Pd
    33
Selective dynamics
Direct
  0.0000000000000000  0.2500000000000000  0.0000000000000000   F   F   F
  0.2500000000000000  0.0000000000000000  0.0000000000000000   F   F   F
  0.5000000000000000  0.2500000000000000  0.0000000000000000   F   F   F
  0.7500000000000000  0.0000000000000000  0.0000000000000000   F   F   F
  0.0000000000000000  0.7500000000000000  0.0000000000000000   F   F   F
  0.2500000000000000  0.5000000000000000  0.0000000000000000   F   F   F
  0.5000000000000000  0.7500000000000000  0.0000000000000000   F   F   F
  0.7500000000000000  0.5000000000000000  0.0000000000000000   F   F   F
  0.0000000000000000  0.0000000000000000  0.0826399999999978   F   F   F
  0.2500000000000000  0.2500000000000000  0.0826399999999978   F   F   F
  0.5000000000000000  0.0000000000000000  0.0826399999999978   F   F   F
  0.7500000000000000  0.2500000000000000  0.0826399999999978   F   F   F
  0.0000000000000000  0.5000000000000000  0.0826399999999978   F   F   F
  0.2500000000000000  0.7500000000000000  0.0826399999999978   F   F   F
  0.5000000000000000  0.5000000000000000  0.0826399999999978   F   F   F
  0.7500000000000000  0.7500000000000000  0.0826399999999978   F   F   F
 -0.0000000000000000  0.2500000000000000  0.1642711210936113   T   T   T
  0.2500000000000000 -0.0000000000000000  0.1642711210936113   T   T   T
  0.5000000000000000  0.2500000000000000  0.1642711210936113   T   T   T
  0.7500000000000000  0.0000000000000000  0.1642711210936113   T   T   T
  0.0000000000000000  0.7500000000000000  0.1642711210936113   T   T   T
  0.2500000000000000  0.5000000000000000  0.1642711210936113   T   T   T
  0.5000000000000000  0.7500000000000000  0.1642711210936113   T   T   T
  0.7500000000000000  0.5000000000000000  0.1642711210936113   T   T   T
 -0.0000000000000000  0.0000000000000000  0.2454094798421524   T   T   T
  0.2500000000000000  0.2500000000000000  0.2454094798421524   T   T   T
  0.5000000000000000  0.0000000000000000  0.2454094798421524   T   T   T
  0.7500000000000000  0.2500000000000000  0.2454094798421524   T   T   T
 -0.0000000000000000  0.5000000000000000  0.2454094798421524   T   T   T
  0.2500000000000000  0.7500000000000000  0.2454094798421524   T   T   T
  0.7500000000000000  0.7500000000000000  0.2454094798421524   T   T   T
  0.5000000000000000  0.5000000000000000  0.2454094798421524   T   T   T
  0.5                 0.25                0.350                T   T   T


  
  0.00000000E+00  0.00000000E+00  0.00000000E+00
  0.00000000E+00  0.00000000E+00  0.00000000E+00
  0.00000000E+00  0.00000000E+00  0.00000000E+00
  0.00000000E+00  0.00000000E+00  0.00000000E+00
  0.00000000E+00  0.00000000E+00  0.00000000E+00
  0.00000000E+00  0.00000000E+00  0.00000000E+00
  0.00000000E+00  0.00000000E+00  0.00000000E+00
  0.00000000E+00  0.00000000E+00  0.00000000E+00
  0.00000000E+00  0.00000000E+00  0.00000000E+00
  0.00000000E+00  0.00000000E+00  0.00000000E+00
  0.00000000E+00  0.00000000E+00  0.00000000E+00
  0.00000000E+00  0.00000000E+00  0.00000000E+00
  0.00000000E+00  0.00000000E+00  0.00000000E+00
  0.00000000E+00  0.00000000E+00  0.00000000E+00
  0.00000000E+00  0.00000000E+00  0.00000000E+00
  0.00000000E+00  0.00000000E+00  0.00000000E+00
  0.00000000E+00  0.00000000E+00  0.00000000E+00
  0.00000000E+00  0.00000000E+00  0.00000000E+00
  0.00000000E+00  0.00000000E+00  0.00000000E+00
  0.00000000E+00  0.00000000E+00  0.00000000E+00
  0.00000000E+00  0.00000000E+00  0.00000000E+00
  0.00000000E+00  0.00000000E+00  0.00000000E+00
  0.00000000E+00  0.00000000E+00  0.00000000E+00
  0.00000000E+00  0.00000000E+00  0.00000000E+00
  0.00000000E+00  0.00000000E+00  0.00000000E+00
  0.00000000E+00  0.00000000E+00  0.00000000E+00
  0.00000000E+00  0.00000000E+00  0.00000000E+00
  0.00000000E+00  0.00000000E+00  0.00000000E+00
  0.00000000E+00  0.00000000E+00  0.00000000E+00
  0.00000000E+00  0.00000000E+00  0.00000000E+00
  0.00000000E+00  0.00000000E+00  0.00000000E+00
  0.00000000E+00  0.00000000E+00  0.00000000E+00
  0.0 0.0 0.0

