Pt111_danbao.CONTCAR                    
   1.00000000000000     
     5.6357998847999999    0.0000000000000000    0.0000000000000000
    -2.8178999424000000    4.8807458709000002    0.0000000000000000
     0.0000000000000000    0.0000000000000000   21.9022998810000011
   Pt   O
    16  1
Selective dynamics
Direct
  0.0000000000000000  0.0000000000000000  0.0000000000000000   F   F   F
  0.5000000000000000  0.0000000000000000  0.0000000000000000   F   F   F
  0.0000000009999965  0.5000000020000002  0.0000000000000000   F   F   F
  0.5000000009999965  0.5000000020000002  0.0000000000000000   F   F   F
  0.3333399790000016  0.1666599910000031  0.1050499979999984   F   F   F
  0.8333400010000034  0.1666599910000031  0.1050499979999984   F   F   F
  0.3333399799999981  0.6666599930000032  0.1050499979999984   F   F   F
  0.8333400229999981  0.6666599930000032  0.1050499979999984   F   F   F
  0.1666579252667847  0.3333146855644449  0.2094767906379472   T   T   T
  0.6666579672667883  0.3333146855644449  0.2094767906379472   T   T   T
  0.1666579172667841  0.8333147115644470  0.2094767906379472   T   T   T
  0.6666579592667876  0.8333147115644470  0.2094767906379472   T   T   T
  0.0000030688578730  0.0000097559719318  0.3153603698798053   T   T   T
  0.5000030688578729  0.0000097559719318  0.3153603698798053   T   T   T
  0.0000030698578695  0.5000097579719320  0.3153603698798053   T   T   T
  0.5000030698578695  0.5000097579719320  0.3153603698798053   T   T   T
  0.2500030698578695  0.0000000000000000  0.4000000000000000   T   T   T
 
  0.00000000E+00  0.00000000E+00  0.00000000E+00
  0.00000000E+00  0.00000000E+00  0.00000000E+00
  0.00000000E+00  0.00000000E+00  0.00000000E+00
  0.00000000E+00  0.00000000E+00  0.00000000E+00
  0.00000000E+00  0.00000000E+00  0.00000000E+00
  0.00000000E+00  0.00000000E+00  0.00000000E+00
  0.00000000E+00  0.00000000E+00  0.00000000E+00
  0.00000000E+00  0.00000000E+00  0.00000000E+00
  0.00000000E+00  0.00000000E+00  0.00000000E+00
  0.00000000E+00  0.00000000E+00  0.00000000E+00
  0.00000000E+00  0.00000000E+00  0.00000000E+00
  0.00000000E+00  0.00000000E+00  0.00000000E+00
  0.00000000E+00  0.00000000E+00  0.00000000E+00
  0.00000000E+00  0.00000000E+00  0.00000000E+00
  0.00000000E+00  0.00000000E+00  0.00000000E+00
  0.00000000E+00  0.00000000E+00  0.00000000E+00
