Pd
   1.00000000000000     
   7.9120001792999997   0.0000000000000000   0.0000000000000000
   0.0000000000000000   7.9120001792999997   0.0000000000000000
   0.0000000000000000   0.0000000000000000  23.9340000153000005
Pd
33  
Selective dynamics
Direct
  0.0000000000000000  0.2500000000000000  0.0000000000000000 F F F
  0.2500000000000000  0.0000000000000000  0.0000000000000000 F F F
  0.5000000000000000  0.2500000000000000  0.0000000000000000 F F F
  0.7500000000000000  0.0000000000000000  0.0000000000000000 F F F
  0.0000000000000000  0.7500000000000000  0.0000000000000000 F F F
  0.2500000000000000  0.5000000000000000  0.0000000000000000 F F F
  0.5000000000000000  0.7500000000000000  0.0000000000000000 F F F
  0.7500000000000000  0.5000000000000000  0.0000000000000000 F F F
  0.0000000000000000  0.0000000000000000  0.0826399999999978 F F F
  0.2500000000000000  0.2500000000000000  0.0826399999999978 F F F
  0.5000000000000000  0.0000000000000000  0.0826399999999978 F F F
  0.7500000000000000  0.2500000000000000  0.0826399999999978 F F F
  0.0000000000000000  0.5000000000000000  0.0826399999999978 F F F
  0.2500000000000000  0.7500000000000000  0.0826399999999978 F F F
  0.5000000000000000  0.5000000000000000  0.0826399999999978 F F F
  0.7500000000000000  0.7500000000000000  0.0826399999999978 F F F
  0.0000000000000000  0.2500000000000000  0.1641147464566690 T T T
  0.2492738126913850  0.0005509146529477  0.1645438896466090 T T T
  0.5000000000000000  0.2500000000000000  0.1652811845501530 T T T
  0.7507261873086150  0.0005509146529477  0.1645438896466090 T T T
  0.0000000000000000  0.7500000000000000  0.1649662667640400 T T T
  0.2492738126913850  0.4994490853470520  0.1645438896466090 T T T
  0.5000000000000000  0.7500000000000000  0.1657692937216030 T T T
  0.7507261873086150  0.4994490853470520  0.1645438896466090 T T T
  0.0000000000000000  0.0024311786682034  0.2465133066733500 T T T
  0.2456767273244150  0.2500000000000000  0.2464759769985960 T T T
  0.5000000000000000  0.0059596836856457  0.2461959754836300 T T T
  0.7543232726755850  0.2500000000000000  0.2464759769985960 T T T
  0.0000000000000000  0.4975688213317970  0.2465133066733500 T T T
  0.2421482223069730  0.7500000000000000  0.2462333051583840 T T T
  0.7578517776930270  0.7500000000000000  0.2462333051583840 T T T
  0.5000000000000000  0.4940403163143540  0.2461959754836300 T T T
  0.5000000000000000  0.8333333333333360  0.3168892537947340 T T T
