Pd
   1.00000000000000     
   7.9120001792999997   0.0000000000000000   0.0000000000000000
   0.0000000000000000   7.9120001792999997   0.0000000000000000
   0.0000000000000000   0.0000000000000000  23.9340000153000005
Pd
33  
Selective dynamics
Direct
  0.0000000000000000  0.2500000000000000  0.0000000000000000 F F F
  0.2500000000000000  0.0000000000000000  0.0000000000000000 F F F
  0.5000000000000000  0.2500000000000000  0.0000000000000000 F F F
  0.7500000000000000  0.0000000000000000  0.0000000000000000 F F F
  0.0000000000000000  0.7500000000000000  0.0000000000000000 F F F
  0.2500000000000000  0.5000000000000000  0.0000000000000000 F F F
  0.5000000000000000  0.7500000000000000  0.0000000000000000 F F F
  0.7500000000000000  0.5000000000000000  0.0000000000000000 F F F
  0.0000000000000000  0.0000000000000000  0.0826399999999978 F F F
  0.2500000000000000  0.2500000000000000  0.0826399999999978 F F F
  0.5000000000000000  0.0000000000000000  0.0826399999999978 F F F
  0.7500000000000000  0.2500000000000000  0.0826399999999978 F F F
  0.0000000000000000  0.5000000000000000  0.0826399999999978 F F F
  0.2500000000000000  0.7500000000000000  0.0826399999999978 F F F
  0.5000000000000000  0.5000000000000000  0.0826399999999978 F F F
  0.7500000000000000  0.7500000000000000  0.0826399999999978 F F F
  0.0000000000000000  0.2500000000000000  0.1645173337001680 T T T
  0.2493940342963650  0.9999048750809860  0.1644320580886430 T T T
  0.5000000000000000  0.2500000000000000  0.1655632612298630 T T T
  0.7506059657036350  0.9999048750809860  0.1644320580886430 T T T
  0.0000000000000000  0.7500000000000000  0.1643035900854100 T T T
  0.2493940342963650  0.5000951249190140  0.1644320580886430 T T T
  0.5000000000000000  0.7500000000000000  0.1651791526061290 T T T
  0.7506059657036350  0.5000951249190140  0.1644320580886430 T T T
  0.0000000000000000  0.9992120853350810  0.2463102173180540 T T T
  0.2432195386353940  0.2500000000000000  0.2461608986190380 T T T
  0.5000000000000000  0.9973327211798950  0.2460488980130440 T T T
  0.7567804613646060  0.2500000000000000  0.2461608986190380 T T T
  0.0000000000000000  0.5007879146649190  0.2463102173180540 T T T
  0.2450989027905810  0.7500000000000000  0.2461982167120600 T T T
  0.7549010972094190  0.7500000000000000  0.2461982167120600 T T T
  0.5000000000000000  0.5026672788201050  0.2460488980130440 T T T
  0.5000000000000000  0.0833333333333428  0.3168777317114570 T T T
