HCN
1.0
       20.0000000000         0.0000000000         0.0000000000
        0.0000000000        20.0000000000         0.0000000000
        0.0000000000         0.0000000000        20.0000000000
    C    N    H
    1    1    1
D
0.5 0.5 0.442
0.5 0.5 0.5
0.5 0.5 0.55
