2x2 qie chu lai de bu shi 1x1-you hua -2x2
1.0
        5.1407999992         0.0000000000         0.0000000000
        0.0000000000         5.1407999992         0.0000000000
        0.0000000000         0.0000000000        23.4526004791
   Cu
   16
S
Direct
0.2500000000	0.2500000000	0.0000000000	F	F	F
0.7499999770	0.2500000000	0.0000000000	F	F	F
0.2500000000	0.7499999770	0.0000000000	F	F	F
0.7499999770	0.7499999770	0.0000000000	F	F	F
0.0000000000	0.0000000000	0.0775000000	F	F	F
0.5000000000	0.0000000000	0.0775000000	F	F	F
0.0000000000	0.5000000000	0.0775000000	F	F	F
0.5000000000	0.5000000000	0.0775000000	F	F	F
0.2500000000	0.2500000000	0.1549999990	T	T	T
0.7499999770	0.2500000000	0.1549999990	T	T	T
0.2500000000	0.7499999770	0.1549999990	T	T	T
0.7499999770	0.7499999770	0.1549999990	T	T	T
0.0000000000	0.0000000000	0.2324900010	T	T	T
0.5000000000	0.0000000000	0.2324900010	T	T	T
0.0000000000	0.5000000000	0.2324900010	T	T	T
0.5000000000	0.5000000000	0.2324900010	T	T	T


