Si
1
  10.8951957590128998   0.0000000000000000   0.0000000000000000
   0.0000000000000000  10.8951957590128998   0.0000000000000000
   0.0000000000000000   0.0000000000000000  10.8951957590128998
Si
63  
Direct
  0.0271417588949956  0.0271417588949956  0.0271417588949956  
  0.0079473232702998  0.2414840223079690  0.2414840223079690  
  0.2414840223079690  0.2414840223079690  0.0079473232702998  
  0.2414840223079690  0.0079473232702998  0.2414840223079690  
  0.3716232523796630  0.1246705242545400  0.3716232523796630  
  0.1246705242545400  0.3716232523796630  0.3716232523796630  
  0.3716232523796630  0.3716232523796630  0.1246705242545400  
  0.4993722968226090  0.0002290818828158  0.0002290818828158  
  0.4993453167604590  0.2496823171783250  0.2496823171783250  
  0.7512581180956450  0.2491404811989290  0.0001672993862916  
  0.7512581180956450  0.0001672993862916  0.2491404811989290  
  0.8781979578188021  0.1252631085376230  0.3717223007690270  
  0.6251255465706720  0.1249541838415020  0.1249541838415020  
  0.6251424983262730  0.3745493914339980  0.3745493914339980  
  0.8781979578188021  0.3717223007690270  0.1252631085376230  
  0.0002290818828158  0.4993722968226090  0.0002290818828158  
  0.0001672993862916  0.7512581180956450  0.2491404811989290  
  0.2491404811989290  0.7512581180956450  0.0001672993862916  
  0.2496823171783250  0.4993453167604590  0.2496823171783250  
  0.3745493914339980  0.6251424983262730  0.3745493914339980  
  0.1249541838415020  0.6251255465706720  0.1249541838415020  
  0.1252631085376230  0.8781979578188021  0.3717223007690270  
  0.3717223007690270  0.8781979578188021  0.1252631085376230  
  0.4988770749991650  0.4988770749991650  0.0001027330977558  
  0.4989040550613150  0.7512115039396920  0.2498086659633850  
  0.7517533399190880  0.7517533399190880  0.0001645155942800  
  0.7512115039396920  0.4989040550613150  0.2498086659633850  
  0.8754635317893710  0.6250897134597340  0.3743324132999340  
  0.6252245949600360  0.6252245949600360  0.1249794489506620  
  0.6250897134597340  0.8754635317893710  0.3743324132999340  
  0.8797292568724170  0.8797292568724170  0.1231139600917650  
  0.0002290818828158  0.0002290818828158  0.4993722968226090  
  0.0001672993862916  0.2491404811989290  0.7512581180956450  
  0.2496823171783250  0.2496823171783250  0.4993453167604590  
  0.2491404811989290  0.0001672993862916  0.7512581180956450  
  0.3717223007690270  0.1252631085376230  0.8781979578188021  
  0.1249541838415020  0.1249541838415020  0.6251255465706720  
  0.1252631085376230  0.3717223007690270  0.8781979578188021  
  0.3745493914339980  0.3745493914339980  0.6251424983262730  
  0.4988770749991650  0.0001027330977558  0.4988770749991650  
  0.4989040550613150  0.2498086659633850  0.7512115039396920  
  0.7512115039396920  0.2498086659633850  0.4989040550613150  
  0.7517533399190880  0.0001645155942800  0.7517533399190880  
  0.8797292568724170  0.1231139600917650  0.8797292568724170  
  0.6252245949600360  0.1249794489506620  0.6252245949600360  
  0.6250897134597340  0.3743324132999340  0.8754635317893710  
  0.8754635317893710  0.3743324132999340  0.6250897134597340  
  0.0001027330977558  0.4988770749991650  0.4988770749991650  
  0.0001645155942800  0.7517533399190880  0.7517533399190880  
  0.2498086659633850  0.7512115039396920  0.4989040550613150  
  0.2498086659633850  0.4989040550613150  0.7512115039396920  
  0.3743324132999340  0.6250897134597340  0.8754635317893710  
  0.1249794489506620  0.6252245949600360  0.6252245949600360  
  0.1231139600917650  0.8797292568724170  0.8797292568724170  
  0.3743324132999340  0.8754635317893710  0.6250897134597340  
  0.4999619563651830  0.4999619563651830  0.4999619563651830  
  0.4999349763030330  0.7501266225736750  0.7501266225736750  
  0.7501266225736750  0.7501266225736750  0.4999349763030330  
  0.7501266225736750  0.4999349763030330  0.7501266225736750  
  0.8754887968985310  0.6252604280709740  0.8754887968985310  
  0.6250076168259709  0.6250076168259709  0.6250076168259709  
  0.6252604280709740  0.8754887968985310  0.8754887968985310  
  0.8754887968985310  0.8754887968985310  0.6252604280709740  
