Ag4 O2
1.0
4.840837 0.000000 0.000000
0.000000 4.840837 0.000000
0.000000 0.000000 4.840837
Ag O
4 2
direct
0.250000 0.250000 0.750000 Ag
0.250000 0.750000 0.250000 Ag
0.750000 0.750000 0.750000 Ag
0.750000 0.250000 0.250000 Ag
0.000000 0.000000 0.000000 O
0.500000 0.500000 0.500000 O
