Pd
   1.00000000000000     
   7.9120001792999997   0.0000000000000000   0.0000000000000000
   0.0000000000000000   7.9120001792999997   0.0000000000000000
   0.0000000000000000   0.0000000000000000  23.9340000153000005
Pd
33  
Selective dynamics
Direct
  0.0000000000000000  0.2500000000000000  0.0000000000000000 F F F
  0.2500000000000000  0.0000000000000000  0.0000000000000000 F F F
  0.5000000000000000  0.2500000000000000  0.0000000000000000 F F F
  0.7500000000000000  0.0000000000000000  0.0000000000000000 F F F
  0.0000000000000000  0.7500000000000000  0.0000000000000000 F F F
  0.2500000000000000  0.5000000000000000  0.0000000000000000 F F F
  0.5000000000000000  0.7500000000000000  0.0000000000000000 F F F
  0.7500000000000000  0.5000000000000000  0.0000000000000000 F F F
  0.0000000000000000  0.0000000000000000  0.0826399999999978 F F F
  0.2500000000000000  0.2500000000000000  0.0826399999999978 F F F
  0.5000000000000000  0.0000000000000000  0.0826399999999978 F F F
  0.7500000000000000  0.2500000000000000  0.0826399999999978 F F F
  0.0000000000000000  0.5000000000000000  0.0826399999999978 F F F
  0.2500000000000000  0.7500000000000000  0.0826399999999978 F F F
  0.5000000000000000  0.5000000000000000  0.0826399999999978 F F F
  0.7500000000000000  0.7500000000000000  0.0826399999999978 F F F
  0.0000000000000000  0.2500000000000000  0.1647859102529793 T T T
  0.2494743149845624  0.9994743149845630  0.1643575341078081 T T T
  0.5000000000000000  0.2500000000000000  0.1657512906377873 T T T
  0.7505256850154371  0.9994743149845630  0.1643575341078081 T T T
  0.0000000000000000  0.7500000000000000  0.1638619553493408 T T T
  0.2494743149845624  0.5005256850154374  0.1643575341078081 T T T
  0.5000000000000000  0.7500000000000000  0.1647859102529793 T T T
  0.7505256850154371  0.5005256850154374  0.1643575341078081 T T T
  0.0000000000000000  0.9970664238611050  0.2461747346976928 T T T
  0.2415816753189083  0.2500000000000000  0.2459510398226779 T T T
  0.5000000000000000  0.9915816753189080  0.2459510398226779 T T T
  0.7584183246810918  0.2500000000000000  0.2459510398226779 T T T
  0.0000000000000000  0.5029335761388952  0.2461747346976928 T T T
  0.2470664238611051  0.7500000000000000  0.2461747346976928 T T T
  0.7529335761388953  0.7500000000000000  0.2461747346976928 T T T
  0.5000000000000000  0.5084183246810919  0.2459510398226779 T T T
  0.5000000000000000  0.2500000000000000  0.3168701278801148 T T T
