Nanocluster\(0\0\1)  3 dui chen         
1.0
       30.0000000000         0.0000000000         0.0000000000
        0.0000000000        30.0000000000         0.0000000000
        0.0000000000         0.0000000000        30.0000000000
   Pt
   13
D
     3.887611628         2.254450560         2.593169689
     6.423226357         2.109629154         2.590515137
     8.961219788         2.248314381         2.589404345
     4.987265587         4.537747860         2.618295908
     6.417839050         6.628226280         2.591926813
     7.829817772         4.521566391         2.601758480
     3.893311024         2.246443987         5.098935127
     6.424505711         2.076491117         5.126264572
     8.955400467         2.248355389         5.094328880
     5.009246349         4.527248383         5.151002407
     6.425280094         6.635405540         5.098698616
     7.839475632         4.527559280         5.136067867
     6.384191036         3.768068314         0.545827925

