ScAl
5.619
        1.0000000000         0.0000000000         0.0000000000
        0.0000000000         1.0000000000         0.0000000000
        0.0000000000         0.0000000000         1.0000000000
   Sc   Al
    4    4
Direct
     0.000000000         0.000000000         0.000000000 Sc
    -0.000000000         0.500000000         0.500000000 Sc
     0.500000000        -0.000000000         0.500000000 Sc
     0.500000000         0.500000000         0.000000000 Sc
     0.500000000         0.500000000         0.500000000 Al
     0.500000000         0.000000000         0.000000000 Al
    -0.000000000         0.500000000         0.000000000 Al
    -0.000000000        -0.000000000         0.500000000 Al
