1x1                                     
   1.00000000000000     
     2.5703999996000002    0.0000000000000000    0.0000000000000000
     0.0000000000000000    2.5703999996000002    0.0000000000000000
     0.0000000000000000    0.0000000000000000   23.4526004790999991
   Cu  H
     4 1
Selective dynamics
Direct
  0.5000000000000000  0.5000000000000000  0.0000000000000000   F   F   F
  0.0000000000000000  0.0000000000000000  0.0775000000000006   F   F   F
  0.5000000000000000  0.5000000000000000  0.1554706194465964   T   T   T
  0.0000000000000000  0.0000000000000000  0.2309401930023222   T   T   T
  0.5   0.5 0.3 T T T

  0.00000000E+00  0.00000000E+00  0.00000000E+00
  0.00000000E+00  0.00000000E+00  0.00000000E+00
  0.00000000E+00  0.00000000E+00  0.00000000E+00
  0.00000000E+00  0.00000000E+00  0.00000000E+00
 0.0 0.0 0.0
