2x2 qie chu lai de bu shi 1x1-you hua -2
   1.00000000000000     
     5.1407999992000004    0.0000000000000000    0.0000000000000000
     0.0000000000000000    5.1407999992000004    0.0000000000000000
     0.0000000000000000    0.0000000000000000   23.4526004790999991
   Cu  H
    16 1
Selective dynamics
Direct
  0.2500000000000000  0.2500000000000000  0.0000000000000000   F   F   F
  0.7499999770000016  0.2500000000000000  0.0000000000000000   F   F   F
  0.2500000000000000  0.7499999770000016  0.0000000000000000   F   F   F
  0.7499999770000016  0.7499999770000016  0.0000000000000000   F   F   F
  0.0000000000000000  0.0000000000000000  0.0775000000000006   F   F   F
  0.5000000000000000  0.0000000000000000  0.0775000000000006   F   F   F
  0.0000000000000000  0.5000000000000000  0.0775000000000006   F   F   F
  0.5000000000000000  0.5000000000000000  0.0775000000000006   F   F   F
  0.2500000000000000  0.2500000000000000  0.1554729305413632   T   T   T
  0.7499999770000016  0.2500000000000000  0.1554729305413632   T   T   T
  0.2500000000000000  0.7499999770000016  0.1554729305413632   T   T   T
  0.7499999770000016  0.7499999770000016  0.1554729305413632   T   T   T
  0.0000000000000000 -0.0000000000000000  0.2309674025966000   T   T   T
  0.5000000000000000 -0.0000000000000000  0.2309674025966000   T   T   T
  0.0000000000000000  0.5000000000000000  0.2309674025966000   T   T   T
  0.5000000000000000  0.5000000000000000  0.2309674025966000   T   T   T
  0.25 0.25 0.26 T T T
  0.00000000E+00  0.00000000E+00  0.00000000E+00
  0.00000000E+00  0.00000000E+00  0.00000000E+00
  0.00000000E+00  0.00000000E+00  0.00000000E+00
  0.00000000E+00  0.00000000E+00  0.00000000E+00
  0.00000000E+00  0.00000000E+00  0.00000000E+00
  0.00000000E+00  0.00000000E+00  0.00000000E+00
  0.00000000E+00  0.00000000E+00  0.00000000E+00
  0.00000000E+00  0.00000000E+00  0.00000000E+00
  0.00000000E+00  0.00000000E+00  0.00000000E+00
  0.00000000E+00  0.00000000E+00  0.00000000E+00
  0.00000000E+00  0.00000000E+00  0.00000000E+00
  0.00000000E+00  0.00000000E+00  0.00000000E+00
  0.00000000E+00  0.00000000E+00  0.00000000E+00
  0.00000000E+00  0.00000000E+00  0.00000000E+00
  0.00000000E+00  0.00000000E+00  0.00000000E+00
  0.00000000E+00  0.00000000E+00  0.00000000E+00
