Pd   H 
1
   4.0316304610402200   0.0000000000000000   0.0000000000000000
   0.0000000000000000   4.0316304610402200   0.0000000000000000
   0.0000000000000000   0.0000000000000000   4.0316304610402200
Pd   H 
4  1  
Direct
  0.9903607400796730  0.9903607400796730  0.9903607400796730  
  0.9426399224548090  0.5429472553057120  0.5429472553057120  
  0.5429472553057120  0.9426399224548090  0.5429472553057120  
  0.5429472553057120  0.5429472553057120  0.9426399224548090  
  0.2811048268540900  0.2811048268540900  0.2811048268540900  
