Cu   Ag
   1.00000000000000     
   7.7123999595999999   0.0000000000000000   0.0000000000000000
  -3.8561999798000000   6.6791342891000003   0.0000000000000000
   0.0000000000000000   0.0000000000000000  24.2971992493000002
Cu   Ag
36  1  
Selective dynamics
Direct
  0.3333305525354080  0.6666695204645950  0.9999811661402800 F F F
  0.3333315515646830  0.9999996753393110  0.9999812719808430 F F F
  0.0000003386606906  0.6666685074353180  0.9999812719808430 F F F
  0.0000010634884262  0.9999989365115740  0.9999813717773450 F F F
  0.3333337411815340  0.3333335808257800  0.9999816025010870 F F F
  0.6666664531742230  0.6666663118184670  0.9999816025010870 F F F
  0.6666655004715950  0.9999985534387010  0.9999816611816290 F F F
  0.0000014405612987  0.3333345195284070  0.9999816611816290 F F F
  0.6666686380171289  0.3333313919828740  0.9999818692555490 F F F
  0.4444423232092660  0.2222230080111490  0.0865400182352687 F F F
  0.7777769979888520  0.5555576737907370  0.0865400182352687 F F F
  0.1111084043854260  0.5555577238153550  0.0865400267559835 F F F
  0.4444422781846460  0.8888916426145740  0.0865400267559835 F F F
  0.4444415944884670  0.5555583925115360  0.0865401540706898 F F F
  0.7777788178657590  0.2222211671342440  0.0865401715436818 F F F
  0.1111094507313270  0.8888906112686710  0.0865404629002100 F F F
  0.1111099140269050  0.2222221875401760  0.0865406647606477 F F F
  0.7777778334598220  0.8888901429730960  0.0865406647606477 F F F
  0.2223820762327760  0.1109500173343040  0.1723548574111430 T T T
  0.8894274078860600  0.7786526418903530  0.1727686510809790 T T T
  0.8887102560395020  0.1110086834032420  0.1725378408790310 T T T
  0.2224081331576140  0.7779814091611430  0.1732245727846120 T T T
  0.5546836120810070  0.4439043435754970  0.1727691617709370 T T T
  0.5553551735199700  0.1109214473620530  0.1732247175723100 T T T
  0.8892880061089130  0.4440459146903070  0.1728846143455410 T T T
  0.2223237703392370  0.4446226594384300  0.1725382855439720 T T T
  0.5554377885192350  0.7778969252603500  0.1731997525451660 T T T
  0.3332701281381820  0.6664805744657440  0.2589095327819490 T T T
  0.3335998458659190  0.9997361312237840  0.2588956870296850 T T T
  0.9997251123774120  0.6665247524413050  0.2583203342185810 T T T
  0.3368481494736320  0.3356392651755440  0.2578994523263200 T T T
  0.6667842095536261  0.6665485554390640  0.2581068600124540 T T T
  0.9976934075175660  0.9964864998405720  0.2578996830500630 T T T
  0.6668565609867020  0.0000616135053804  0.2589101300566550 T T T
  0.9984267196238790  0.3349044902801170  0.2581287565677210 T T T
  0.6668102784948861  0.3336039825966990  0.2583208292599290 T T T
  0.1333364418086940  0.1999956581583860  0.3444347896936930 T T T
