Pd
   1.00000000000000     
   7.9120001792999997   0.0000000000000000   0.0000000000000000
   0.0000000000000000   7.9120001792999997   0.0000000000000000
   0.0000000000000000   0.0000000000000000  23.9340000153000005
Pd
33  
Selective dynamics
Direct
  0.0000000000000000  0.2500000000000000  0.0000000000000000 F F F
  0.2500000000000000  0.0000000000000000  0.0000000000000000 F F F
  0.5000000000000000  0.2500000000000000  0.0000000000000000 F F F
  0.7500000000000000  0.0000000000000000  0.0000000000000000 F F F
  0.0000000000000000  0.7500000000000000  0.0000000000000000 F F F
  0.2500000000000000  0.5000000000000000  0.0000000000000000 F F F
  0.5000000000000000  0.7500000000000000  0.0000000000000000 F F F
  0.7500000000000000  0.5000000000000000  0.0000000000000000 F F F
  0.0000000000000000  0.0000000000000000  0.0826399999999978 F F F
  0.2500000000000000  0.2500000000000000  0.0826399999999978 F F F
  0.5000000000000000  0.0000000000000000  0.0826399999999978 F F F
  0.7500000000000000  0.2500000000000000  0.0826399999999978 F F F
  0.0000000000000000  0.5000000000000000  0.0826399999999978 F F F
  0.2500000000000000  0.7500000000000000  0.0826399999999978 F F F
  0.5000000000000000  0.5000000000000000  0.0826399999999978 F F F
  0.7500000000000000  0.7500000000000000  0.0826399999999978 F F F
  0.0000000000000000  0.2500000000000000  0.1642393451310720 T T T
  0.2494049072233150  0.0002446360997226  0.1643789666266640 T T T
  0.5000000000000000  0.2500000000000000  0.1651251402716410 T T T
  0.7505950927766780  0.0002446360997226  0.1643789666266640 T T T
  0.0000000000000000  0.7500000000000000  0.1644953618421570 T T T
  0.2494049072233150  0.4997553639002770  0.1643789666266640 T T T
  0.5000000000000000  0.7500000000000000  0.1654724301293700 T T T
  0.7505950927766780  0.4997553639002770  0.1643789666266640 T T T
  0.0000000000000000  0.0010481123173776  0.2462895334270310 T T T
  0.2451679207426310  0.2500000000000000  0.2462149684686920 T T T
  0.5000000000000000  0.0029427136568785  0.2459871659760110 T T T
  0.7548320792573689  0.2500000000000000  0.2462149684686920 T T T
  0.0000000000000000  0.4989518876826220  0.2462895334270310 T T T
  0.2432733194031230  0.7500000000000000  0.2460617309343500 T T T
  0.7567266805968770  0.7500000000000000  0.2460617309343500 T T T
  0.5000000000000000  0.6694727748936909  0.2931174042866050 T T T
  0.5000000000000000  0.4109178447827520  0.2696268619951570 T T T
