Cu4
3.64
1.000000 0.000000 0.000000
0.000000 1.000000 0.000000
0.000000 0.000000 1.000000
Cu
4
direct
0.000000 0.000000 0.000000 Pt
0.000000 0.500000 0.500000 Pt
0.500000 0.000000 0.500000 Pt
0.500000 0.500000 0.000000 Pt
