Si
1
  10.8951957221708007   0.0000000000000000   0.0000000000000000
   0.0000000000000000  10.8951957221708007   0.0000000000000000
   0.0000000000000000   0.0000000000000000  10.8951957221708007
Si
63  
Direct
  0.0624999788279254  0.0624999788279254  0.0624999788279254  
  0.0049166719538379  0.2433773647809690  0.2433773647809690  
  0.2433773647809690  0.2433773647809690  0.0049166719538379  
  0.2433773647809690  0.0049166719538379  0.2433773647809690  
  0.3724349455237070  0.1247529920343120  0.3724349455237070  
  0.1247529920343120  0.3724349455237070  0.3724349455237070  
  0.3724349455237070  0.3724349455237070  0.1247529920343120  
  0.4996233780935650  0.0001374491296895  0.0001374491296895  
  0.4995424379071160  0.2495967480537330  0.2495967480537330  
  0.7522679106611980  0.2479712401155450  0.9999521016401171  
  0.7522679106611980  0.9999521016401171  0.2479712401155450  
  0.8770287290716789  0.1250479063421780  0.3727320906917980  
  0.6253766177120220  0.1248625515245050  0.1248625515245050  
  0.6251037573781000  0.3747113764780630  0.3747113764780630  
  0.8770287290716789  0.3727320906917980  0.1250479063421780  
  0.0001374491296895  0.4996233780935650  0.0001374491296895  
  0.9999521016401171  0.7522679106611980  0.2479712401155450  
  0.2479712401155450  0.7522679106611980  0.9999521016401171  
  0.2495967480537330  0.4995424379071160  0.2495967480537330  
  0.3747113764780630  0.6251037573781000  0.3747113764780630  
  0.1248625515245050  0.6253766177120220  0.1248625515245050  
  0.1250479063421780  0.8770287290716789  0.3727320906917980  
  0.3727320906917980  0.8770287290716789  0.1250479063421780  
  0.4993262449994990  0.4993262449994990  0.0000616398586535  
  0.4994071851859490  0.7509395358170770  0.2496725573247690  
  0.7525650437552640  0.7525650437552640  0.0002469873482261  
  0.7509395358170770  0.4994071851859490  0.2496725573247690  
  0.8753274371920350  0.6255928339799310  0.3740604420758690  
  0.6256737628801120  0.6256737628801120  0.1249383468519850  
  0.6255928339799310  0.8753274371920350  0.3740604420758690  
  0.8816226262325230  0.8816226262325230  0.1200832995459870  
  0.0001374491296895  0.0001374491296895  0.4996233780935650  
  0.9999521016401171  0.2479712401155450  0.7522679106611980  
  0.2495967480537330  0.2495967480537330  0.4995424379071160  
  0.2479712401155450  0.9999521016401171  0.7522679106611980  
  0.3727320906917980  0.1250479063421780  0.8770287290716789  
  0.1248625515245050  0.1248625515245050  0.6253766177120220  
  0.1250479063421780  0.3727320906917980  0.8770287290716789  
  0.3747113764780630  0.3747113764780630  0.6251037573781000  
  0.4993262449994990  0.0000616398586535  0.4993262449994990  
  0.4994071851859490  0.2496725573247690  0.7509395358170770  
  0.7509395358170770  0.2496725573247690  0.4994071851859490  
  0.7525650437552640  0.0002469873482261  0.7525650437552640  
  0.8816226262325230  0.1200832995459870  0.8816226262325230  
  0.6256737628801120  0.1249383468519850  0.6256737628801120  
  0.6255928339799310  0.3740604420758690  0.8753274371920350  
  0.8753274371920350  0.3740604420758690  0.6255928339799310  
  0.0000616398586535  0.4993262449994990  0.4993262449994990  
  0.0002469873482261  0.7525650437552640  0.7525650437552640  
  0.2496725573247690  0.7509395358170770  0.4994071851859490  
  0.2496725573247690  0.4994071851859490  0.7509395358170770  
  0.3740604420758690  0.6255928339799310  0.8753274371920350  
  0.1249383468519850  0.6256737628801120  0.6256737628801120  
  0.1200832995459870  0.8816226262325230  0.8816226262325230  
  0.3740604420758690  0.8753274371920350  0.6255928339799310  
  0.4999771738191100  0.4999771738191100  0.4999771738191100  
  0.4998962336326600  0.7502886069974660  0.7502886069974660  
  0.7502886069974660  0.7502886069974660  0.4998962336326600  
  0.7502886069974660  0.4998962336326600  0.7502886069974660  
  0.8754032325195160  0.6254575466122030  0.8754032325195160  
  0.6250228284779190  0.6250228284779190  0.6250228284779190  
  0.6254575466122030  0.8754032325195160  0.8754032325195160  
  0.8754032325195160  0.8754032325195160  0.6254575466122030  
