NaCl
1.0
        5.6199998856         0.0000000000         0.0000000000
        0.0000000000         5.6199998856         0.0000000000
        0.0000000000         0.0000000000         5.6199998856
   Li    H
    4    4
Direct
     0.000000000         0.000000000         0.000000000
    -0.000000000         0.500000000         0.500000000
     0.500000000        -0.000000000         0.500000000
     0.500000000         0.500000000         0.000000000
     0.500000000         0.500000000         0.500000000
     0.500000000         0.000000000         0.000000000
    -0.000000000         0.500000000         0.000000000
    -0.000000000        -0.000000000         0.500000000

