Pt4
2.635
1.000000 0.000000 0.000000
0.000000 1.000000 0.000000
0.000000 0.000000 1.000000
Pt
1
direct
0.500000 0.500000 0.500000 Pt
