Ag
1.0
        2.8889999390         0.0000000000         0.0000000000
        1.4444999695         2.5019473387         0.0000000000
        1.4444999695         0.8339824462         2.3588585725
   Ag
    1
Direct
     0.000000000         0.000000000         0.000000000
