SYSTEM=Pt FCC mian xin li fang

ISATART=0
ICHARGE=2

ISMEAR=0
SIGMA=0.01 #need test
#ALGO=Fast

ISPIN=0
ENCUT=500

IBRION=2
ISIF=2
#some parameter not set
EDIFF=1E-5
EDIFFG=1E-4
NELM=400
NSW=0
POTIM=0.1 #defult 0.5

LREAL=Auto

#slab
LDIPOL= .TRUE.
IDIPOL=3

