Nanocluster\(0\0\1)  3 dui chen
1.0
       20.0         0.0000000000         0.0000000000
        0.0 20.0         0.0000000000
        0.0000000000         0.0000000000         20.0
   Pt
   13
Cartesian
     3.855000019         2.225685120         2.599974155
     6.424999714         2.225685120         2.599974155
     8.994999886         2.225685120         2.599974155
     5.139999866         4.451370239         2.599974155
     6.425000191         6.677055359         2.599974155
     7.710000038         4.451370239         2.599974155
     3.855000019         2.225685120         5.200026512
     6.424999714         2.225685120         5.200026512
     8.994999886         2.225685120         5.200026512
     5.139999866         4.451370239         5.200026512
     6.425000191         6.677055359         5.200026512
     7.710000038         4.451370239         5.200026512
     6.338390827         3.815803528         0.036192000

