Nanocluster\(0\0\1)  3 dui chen         
   1.00000000000000     
    20.0000000000000000    0.0000000000000000    0.0000000000000000
     0.0000000000000000   20.0000000000000000    0.0000000000000000
     0.0000000000000000    0.0000000000000000   20.0000000000000000
   Pt
    13
Direct
  0.2285161966902447  0.1880720628166649  0.0410691699661947
  0.3232233646236984  0.1159912125589108  0.0909503327045735
  0.4290687167696806  0.1288391512346768  0.1626040623679887
  0.3441971175268037  0.2412031296247095  0.0710263869349763
  0.2909257960101321  0.2816400305111078  0.1780634371770429
  0.3936152213758986  0.2373239023756416  0.2369496653584170
  0.1873747346171248  0.2104869884560834  0.1604306460786646
  0.3498505190162102  0.0299698411420794  0.1881218675921523
  0.3856244249325892  0.1125813079574472  0.2906930678010982
  0.2834772759948981  0.1417388297268350  0.2072198710926541
  0.2024907772110373  0.2785208490614984  0.2712933785271614
  0.2947990388467122  0.2022034254265291  0.3164726646090566
  0.4587563768349774  0.2479045682078160  0.1269152649400206
 
  0.00000000E+00  0.00000000E+00  0.00000000E+00
  0.00000000E+00  0.00000000E+00  0.00000000E+00
  0.00000000E+00  0.00000000E+00  0.00000000E+00
  0.00000000E+00  0.00000000E+00  0.00000000E+00
  0.00000000E+00  0.00000000E+00  0.00000000E+00
  0.00000000E+00  0.00000000E+00  0.00000000E+00
  0.00000000E+00  0.00000000E+00  0.00000000E+00
  0.00000000E+00  0.00000000E+00  0.00000000E+00
  0.00000000E+00  0.00000000E+00  0.00000000E+00
  0.00000000E+00  0.00000000E+00  0.00000000E+00
  0.00000000E+00  0.00000000E+00  0.00000000E+00
  0.00000000E+00  0.00000000E+00  0.00000000E+00
  0.00000000E+00  0.00000000E+00  0.00000000E+00
