Pt\(3)\(0\0\1)                          
   1.00000000000000     
    20.0000000000000000    0.0000000000000000    0.0000000000000000
     0.0000000000000000   20.0000000000000000    0.0000000000000000
     0.0000000000000000    0.0000000000000000   20.0000000000000000
   Pt
    13
Direct
  0.2109430639212417  0.2896742042909112  0.1164225083911403
  0.2942924976499981  0.1949852391892212  0.1133151062182709
  0.3776419432287600  0.2896742042909112  0.1164225083911403
  0.1671292754439314  0.4098785419486381  0.1150401216600625
  0.2942924976499981  0.3898946525595660  0.1113435957999924
  0.4214557079060648  0.4098785419486381  0.1150401216600625
  0.2942924976499981  0.2855571787944622  0.0146016508504214
  0.2103020786572896  0.2838047403528464  0.2429670263754096
  0.2942924976499981  0.1867834280468898  0.2408805905132559
  0.3782829284927122  0.2838047403528464  0.2429670263754096
  0.1684426750003301  0.4053649557332842  0.2400802678364593
  0.2942924976499981  0.3835349903084982  0.2399486668919287
  0.4201423083496660  0.4053649557332842  0.2400802678364593
 
  0.00000000E+00  0.00000000E+00  0.00000000E+00
  0.00000000E+00  0.00000000E+00  0.00000000E+00
  0.00000000E+00  0.00000000E+00  0.00000000E+00
  0.00000000E+00  0.00000000E+00  0.00000000E+00
  0.00000000E+00  0.00000000E+00  0.00000000E+00
  0.00000000E+00  0.00000000E+00  0.00000000E+00
  0.00000000E+00  0.00000000E+00  0.00000000E+00
  0.00000000E+00  0.00000000E+00  0.00000000E+00
  0.00000000E+00  0.00000000E+00  0.00000000E+00
  0.00000000E+00  0.00000000E+00  0.00000000E+00
  0.00000000E+00  0.00000000E+00  0.00000000E+00
  0.00000000E+00  0.00000000E+00  0.00000000E+00
  0.00000000E+00  0.00000000E+00  0.00000000E+00
