Si
1
  10.8951957405919000   0.0000000000000000   0.0000000000000000
   0.0000000000000000  10.8951957405919000   0.0000000000000000
   0.0000000000000000   0.0000000000000000  10.8951957405919000
Si
63  
Direct
  0.0448208688614605  0.0448208688614605  0.0448208688614605  
  0.0064319976120689  0.2424306935444690  0.2424306935444690  
  0.2424306935444690  0.2424306935444690  0.0064319976120689  
  0.2424306935444690  0.0064319976120689  0.2424306935444690  
  0.3720290989516850  0.1247117581444260  0.3720290989516850  
  0.1247117581444260  0.3720290989516850  0.3720290989516850  
  0.3720290989516850  0.3720290989516850  0.1247117581444260  
  0.4994978374580870  0.0001832655062526  0.0001832655062526  
  0.4994438773337870  0.2496395326160290  0.2496395326160290  
  0.7517630143784210  0.2485558606572370  0.0000597005132042  
  0.7517630143784210  0.0000597005132042  0.2485558606572370  
  0.8776133434452400  0.1251555074399010  0.3722271957304120  
  0.6252510821413469  0.1249083676830030  0.1249083676830030  
  0.6251231278521870  0.3746303839560310  0.3746303839560300  
  0.8776133434452400  0.3722271957304120  0.1251555074399010  
  0.0001832655062526  0.4994978374580870  0.0001832655062526  
  0.0000597005132042  0.7517630143784210  0.2485558606572370  
  0.2485558606572370  0.7517630143784210  0.0000597005132042  
  0.2496395326160290  0.4994438773337870  0.2496395326160290  
  0.3746303839560300  0.6251231278521870  0.3746303839560300  
  0.1249083676830030  0.6252510821413469  0.1249083676830030  
  0.1251555074399010  0.8776133434452400  0.3722271957304120  
  0.3722271957304120  0.8776133434452400  0.1251555074399010  
  0.4991016599993320  0.4991016599993320  0.0000821864782047  
  0.4991556201236320  0.7510755198783839  0.2497406116440770  
  0.7521591918371761  0.7521591918371761  0.0002057514712531  
  0.7510755198783839  0.4991556201236320  0.2497406116440770  
  0.8753954844907030  0.6253412737198329  0.3741964276879010  
  0.6254491789200740  0.6254491789200740  0.1249588979013240  
  0.6253412737198329  0.8753954844907030  0.3741964276879010  
  0.8806759415524700  0.8806759415524700  0.1215986298188760  
  0.0001832655062526  0.0001832655062526  0.4994978374580870  
  0.0000597005132042  0.2485558606572370  0.7517630143784210  
  0.2496395326160290  0.2496395326160290  0.4994438773337870  
  0.2485558606572370  0.0000597005132042  0.7517630143784210  
  0.3722271957304120  0.1251555074399010  0.8776133434452400  
  0.1249083676830030  0.1249083676830030  0.6252510821413469  
  0.1251555074399010  0.3722271957304120  0.8776133434452400  
  0.3746303839560300  0.3746303839560300  0.6251231278521870  
  0.4991016599993320  0.0000821864782047  0.4991016599993320  
  0.4991556201236320  0.2497406116440770  0.7510755198783839  
  0.7510755198783839  0.2497406116440770  0.4991556201236320  
  0.7521591918371761  0.0002057514712531  0.7521591918371761  
  0.8806759415524700  0.1215986298188760  0.8806759415524700  
  0.6254491789200740  0.1249588979013240  0.6254491789200740  
  0.6253412737198329  0.3741964276879020  0.8753954844907030  
  0.8753954844907030  0.3741964276879020  0.6253412737198329  
  0.0000821864782047  0.4991016599993320  0.4991016599993320  
  0.0002057514712531  0.7521591918371761  0.7521591918371761  
  0.2497406116440770  0.7510755198783839  0.4991556201236320  
  0.2497406116440770  0.4991556201236320  0.7510755198783839  
  0.3741964276879010  0.6253412737198329  0.8753954844907030  
  0.1249588979013240  0.6254491789200740  0.6254491789200740  
  0.1215986298188760  0.8806759415524700  0.8806759415524700  
  0.3741964276879010  0.8753954844907030  0.6253412737198329  
  0.4999695650921460  0.4999695650921460  0.4999695650921460  
  0.4999156049678470  0.7502076147855700  0.7502076147855700  
  0.7502076147855700  0.7502076147855700  0.4999156049678470  
  0.7502076147855700  0.4999156049678470  0.7502076147855700  
  0.8754460147090239  0.6253589873415880  0.8754460147090239  
  0.6250152226519450  0.6250152226519450  0.6250152226519450  
  0.6253589873415880  0.8754460147090239  0.8754460147090239  
  0.8754460147090239  0.8754460147090239  0.6253589873415880  
