Cu_CONCAR\(1\1\0)
1.0
        3.6359999180         0.0000000000         0.0000000000
        0.0000000000         5.1420998573         0.0000000000
        0.0000000000         0.0000000000        23.9986000061
   Cu
   16
Cartesian
     2.914835691         2.571049929         1.285604954     F F F
     2.914835691         0.000000000         3.856574774     T T T
     2.914835691         2.571049929         6.427545547     T T T
     2.914835691         0.000000000         8.998515129     T T T
     1.096835732         3.856575012         0.000000000     F F F
     1.096835732         1.285524964         2.570970058     T T T
     1.096835732         3.856575012         5.142179966     T T T
     1.096835732         1.285524964         7.713149548     T T T
     1.096835732         1.285524964         0.000000000     F F F
     1.096835732         3.856575012         2.570970058     T T T
     1.096835732         1.285524964         5.142179966     T T T
     1.096835732         3.856575012         7.713149548     T T T
     2.914835691         0.000000000         1.285604954     F F F
     2.914835691         2.571049929         3.856574774     T T T
     2.914835691         0.000000000         6.427545547     T T T
     2.914835691         2.571049929         8.998515129     T T T

