Mn2 F4
1.0
4.968952 0.000000 0.000000
0.000000 4.968952 0.000000
0.000000 0.000000 3.354588
Mn F
2 4
direct
0.000000 0.000000 0.000000 Mn
0.500000 0.500000 0.500000 Mn
0.194853 0.805147 0.500000 F
0.805147 0.194853 0.500000 F
0.694853 0.694853 0.000000 F
0.305147 0.305147 0.000000 F
