SYSTEM=Cu

ISATART=0
ICHARGE=2


ISMEAR=0
SIGMA=0.01 #need test
ENCUT=500

IBRION=2
ISIF=3
EIDFF=1E-5
EDIFFG=1E-4
NELM=200
NSW=500
POTIM=0.1

LREAL=Auto

