C    N    H 
   1.00000000000000     
  20.0000000000000000   0.0000000000000000   0.0000000000000000
   0.0000000000000000  20.0000000000000000   0.0000000000000000
   0.0000000000000000   0.0000000000000000  20.0000000000000000
C    N    H 
1  1  1  
Direct
  0.4999025166406645  0.5000000000000000  0.5000000000000000  
  0.5578501003511457  0.5000000000000000  0.5000000000000000  
  0.4462473830081877  0.5000000000000000  0.5000000000000000  
