Pd
   1.00000000000000     
   7.9120001792999997   0.0000000000000000   0.0000000000000000
   0.0000000000000000   7.9120001792999997   0.0000000000000000
   0.0000000000000000   0.0000000000000000  23.9340000153000005
Pd
33  
Selective dynamics
Direct
  0.0000000000000000  0.2500000000000000  0.0000000000000000 F F F
  0.2500000000000000  0.0000000000000000  0.0000000000000000 F F F
  0.5000000000000000  0.2500000000000000  0.0000000000000000 F F F
  0.7500000000000000  0.0000000000000000  0.0000000000000000 F F F
  0.0000000000000000  0.7500000000000000  0.0000000000000000 F F F
  0.2500000000000000  0.5000000000000000  0.0000000000000000 F F F
  0.5000000000000000  0.7500000000000000  0.0000000000000000 F F F
  0.7500000000000000  0.5000000000000000  0.0000000000000000 F F F
  0.0000000000000000  0.0000000000000000  0.0826399999999978 F F F
  0.2500000000000000  0.2500000000000000  0.0826399999999978 F F F
  0.5000000000000000  0.0000000000000000  0.0826399999999978 F F F
  0.7500000000000000  0.2500000000000000  0.0826399999999978 F F F
  0.0000000000000000  0.5000000000000000  0.0826399999999978 F F F
  0.2500000000000000  0.7500000000000000  0.0826399999999978 F F F
  0.5000000000000000  0.5000000000000000  0.0826399999999978 F F F
  0.7500000000000000  0.7500000000000000  0.0826399999999978 F F F
  0.0000000000000000  0.2500000000000000  0.1642489422045020 T T T
  0.2493138865597120  0.0003355681289605  0.1645066124606200 T T T
  0.5000000000000000  0.2500000000000000  0.1653752101100570 T T T
  0.7506861134402880  0.0003355681289605  0.1645066124606200 T T T
  0.0000000000000000  0.7500000000000000  0.1647453745378300 T T T
  0.2493138865597120  0.4996644318710390  0.1645066124606200 T T T
  0.5000000000000000  0.7500000000000000  0.1655725800164450 T T T
  0.7506861134402880  0.4996644318710390  0.1645066124606200 T T T
  0.0000000000000000  0.0013581475571627  0.2464456102215850 T T T
  0.2448576644280750  0.2500000000000000  0.2463709508720770 T T T
  0.5000000000000000  0.0030840295170620  0.2461469496601010 T T T
  0.7551423355719250  0.2500000000000000  0.2463709508720770 T T T
  0.0000000000000000  0.4986418524428370  0.2464456102215850 T T T
  0.2431317824681760  0.7500000000000000  0.2462216090096090 T T T
  0.7568682175318240  0.7500000000000000  0.2462216090096090 T T T
  0.5000000000000000  0.4969159704829380  0.2461469496601010 T T T
  0.5000000000000000  0.9166666666666710  0.3168854131003090 T T T
