2                                       
   1.00000000000000     
     3.6350998878000000    0.0000000000000000    0.0000000000000000
     0.0000000000000000    3.6350998878000000    0.0000000000000000
     0.0000000000000000    0.0000000000000000   23.4526004790999991
   Cu   H
     8  1
Selective dynamics
Direct
  0.0000000000000000  0.5000000000000000  0.0000000000000000   F   F   F
  0.5000000000000000  0.0000000000000000  0.0000000000000000   F   F   F
  0.0000000000000000  0.0000000000000000  0.0775000000000006   F   F   F
  0.5000000000000000  0.5000000000000000  0.0775000000000006   F   F   F
 -0.0000000000000000  0.5000000000000000  0.1558453997227547   T   T   T
  0.5000000000000000  0.0000000000000000  0.1558453997227547   T   T   T
 -0.0000000000000000  0.0000000000000000  0.2312086177413358   T   T   T
  0.5000000000000000  0.5000000000000000  0.2312086177413358   T   T   T
  0.0 0.5 0.26 T T T
  0.00000000E+00  0.00000000E+00  0.00000000E+00
  0.00000000E+00  0.00000000E+00  0.00000000E+00
  0.00000000E+00  0.00000000E+00  0.00000000E+00
  0.00000000E+00  0.00000000E+00  0.00000000E+00
  0.00000000E+00  0.00000000E+00  0.00000000E+00
  0.00000000E+00  0.00000000E+00  0.00000000E+00
  0.00000000E+00  0.00000000E+00  0.00000000E+00
  0.00000000E+00  0.00000000E+00  0.00000000E+00
