Pd H 8                                  
   1.00000000000000     
     4.0135501792757164    0.0000000000000000   -0.0000000000000000
     0.0000000000000000    4.0135501792757164    0.0000000000000000
     0.0000000000000000    0.0000000000000000    4.0135501792757164
   Pd   H 
     4     1
S
Direct
  0.0000000000000000  0.0000000000000000  0.0000000000000000  F F F
  0.0000000000000000  0.5000000000000000  0.5000000000000000 F F F
  0.5000000000000000  0.0000000000000000  0.5000000000000000 F  F F
  0.5000000000000000  0.5000000000000000  0.0000000000000000 F F F
  0.5000000000000000  0.5000000000000000  0.5000000000000000 T T T
 
  0.00000000E+00  0.00000000E+00  0.00000000E+00
  0.00000000E+00  0.00000000E+00  0.00000000E+00
  0.00000000E+00  0.00000000E+00  0.00000000E+00
  0.00000000E+00  0.00000000E+00  0.00000000E+00
  0.00000000E+00  0.00000000E+00  0.00000000E+00
