CONTCAR\(1\1\0)\(0\0\1)\(3)
1.0
        7.9700999260         0.0000000000         0.0000000000
        0.0000000000         2.8178999424         0.0000000000
        0.0000000000         0.0000000000        24.8624992371
   Pt
   15
Cartesian
     0.263491511         0.186291367         1.408957839       F F F
     0.263491511         0.186291367         7.044540882       T T T
     2.256016493         1.595241427         8.453497887       T T T
     2.256016493         1.595241427         2.817915678       T T T
     0.263491511         0.186291367         4.226873398       T T T
     0.263491511         0.186291367         9.862456322       T T T
     2.256016493         1.595241427         5.635831356       T T T
     2.256016493         1.595241427         0.000000000       F F F
     4.248541355         0.186291367         1.408957839       F F F
     4.248541355         0.186291367         7.044540882       T T T
     6.241066456         1.595241427         8.453497887       T T T
     6.241066456         1.595241427         2.817915678       T T T
     4.248541355         0.186291367         4.226873398       T T T
     6.241066456         1.595241427         5.635831356       T T T
     6.241066456         1.595241427         0.000000000       F F F
