Pt111_danbao.CONTCAR\(0\0\1) O-> y+ x- f
   1.00000000000000     
     4.8807001114000004    0.0000000000000000    0.0000000000000000
     2.4403500557000002    4.2268102847000000    0.0000000000000000
     0.0000000000000000    0.0000000000000000   24.9022998810000011
   Pt   O    H 
    12     1     1
Selective dynamics
Direct
  0.0000000000000000  0.0000000000000000  0.0000000000000000   F   F   F
  0.3333300030000004  0.3333300279999989  0.0000000000000000   F   F   F
  0.6666699620000003  0.6666700399999996  0.0000000000000000   F   F   F
  0.6666700050000003  0.0000000000000000  0.0923900029999984   F   F   F
  0.9999999839999987  0.3333300279999989  0.0923900029999984   F   F   F
  0.3333399670000006  0.6666700399999996  0.0923900029999984   F   F   F
  0.3177335360551269  0.0157973788990070  0.1822607992067564   T   T   T
  0.6496541619134688  0.3393481647717022  0.1851670912804398   T   T   T
 -0.0057053048104618  0.6831811045582552  0.1852382439087322   T   T   T
  0.0042795266831519 -0.0118579765554901  0.2797682662409370   T   T   T
  0.3470315323006715  0.3289092845191400  0.2797170605883021   T   T   T
  0.6590154210708190  0.6741535270146828  0.2712450809482353   T   T   T
  0.1380453540784078  0.1952021649191383  0.3445072218653701   T   T   T
  0.3215071771209276  0.0125698809522901  0.3608914110389702   T   T   T
 
  0.00000000E+00  0.00000000E+00  0.00000000E+00
  0.00000000E+00  0.00000000E+00  0.00000000E+00
  0.00000000E+00  0.00000000E+00  0.00000000E+00
  0.00000000E+00  0.00000000E+00  0.00000000E+00
  0.00000000E+00  0.00000000E+00  0.00000000E+00
  0.00000000E+00  0.00000000E+00  0.00000000E+00
  0.00000000E+00  0.00000000E+00  0.00000000E+00
  0.00000000E+00  0.00000000E+00  0.00000000E+00
  0.00000000E+00  0.00000000E+00  0.00000000E+00
  0.00000000E+00  0.00000000E+00  0.00000000E+00
  0.00000000E+00  0.00000000E+00  0.00000000E+00
  0.00000000E+00  0.00000000E+00  0.00000000E+00
  0.00000000E+00  0.00000000E+00  0.00000000E+00
  0.00000000E+00  0.00000000E+00  0.00000000E+00
