Pd  H 4                                 
   1.00000000000000     
     4.0361505314813524   -0.0000000000000000    0.0000000000000000
    -0.0000000000000000    4.0361505314813524   -0.0000000000000000
     0.0000000000000000   -0.0000000000000000    4.0361505314813524
   Pd   H 
     4     1
S
Direct
 -0.0066788815496484 -0.0066788815496484 -0.0066788815496484 F F F
 -0.0066788815496484  0.5066788815496485  0.5066788815496485 F F F
  0.5066788815496485 -0.0066788815496484  0.5066788815496485 F F F
  0.5066788815496485  0.5066788815496485 -0.0066788815496484 F F F
  0.2500000000000000  0.2500000000000000  0.2500000000000000 T T T
 
  0.00000000E+00  0.00000000E+00  0.00000000E+00
  0.00000000E+00  0.00000000E+00  0.00000000E+00
  0.00000000E+00  0.00000000E+00  0.00000000E+00
  0.00000000E+00  0.00000000E+00  0.00000000E+00
  0.00000000E+00  0.00000000E+00  0.00000000E+00
