Pt111_danbao.CONTCAR                    
   1.00000000000000     
     5.6357998847999999    0.0000000000000000    0.0000000000000000
    -2.8178999424000000    4.8807458709000002    0.0000000000000000
     0.0000000000000000    0.0000000000000000   21.9022998810000011
   Pt   O    H 
    16     1     2
Selective dynamics
Direct
  0.0000000000000000  0.0000000000000000  0.0000000000000000   F   F   F
  0.5000000000000000  0.0000000000000000  0.0000000000000000   F   F   F
  0.0000000009999965  0.5000000020000002  0.0000000000000000   F   F   F
  0.5000000009999965  0.5000000020000002  0.0000000000000000   F   F   F
  0.3333399790000016  0.1666599910000031  0.1050499979999984   F   F   F
  0.8333400010000034  0.1666599910000031  0.1050499979999984   F   F   F
  0.3333399799999981  0.6666599930000032  0.1050499979999984   F   F   F
  0.8333400229999981  0.6666599930000032  0.1050499979999984   F   F   F
  0.1649512776906418  0.3345655114979764  0.2083783150395415   T   T   T
  0.6631843687649293  0.3365828670687219  0.2081906995427288   T   T   T
  0.1624841060374701  0.8361017245237498  0.2081446964639251   T   T   T
  0.6605939502377189  0.8376917416840037  0.2150226279881331   T   T   T
 -0.0113923499443833  0.0041820135924567  0.3162141002198780   T   T   T
  0.5004707674141685 -0.0020161715825086  0.3155660886656541   T   T   T
 -0.0003302474025547  0.5003040093560468  0.3123301464269427   T   T   T
  0.4941540915609938  0.5090043719419345  0.3166347946584355   T   T   T
  0.3390000172705227  0.1619948348158681  0.3843771873442967   T   T   T
  0.3569234698297630  0.1616995657081219  0.4285535311434474   T   T   T
  0.8382931981624172  0.6616614739518724  0.3539338428997517   T   T   T
 
  0.00000000E+00  0.00000000E+00  0.00000000E+00
  0.00000000E+00  0.00000000E+00  0.00000000E+00
  0.00000000E+00  0.00000000E+00  0.00000000E+00
  0.00000000E+00  0.00000000E+00  0.00000000E+00
  0.00000000E+00  0.00000000E+00  0.00000000E+00
  0.00000000E+00  0.00000000E+00  0.00000000E+00
  0.00000000E+00  0.00000000E+00  0.00000000E+00
  0.00000000E+00  0.00000000E+00  0.00000000E+00
  0.00000000E+00  0.00000000E+00  0.00000000E+00
  0.00000000E+00  0.00000000E+00  0.00000000E+00
  0.00000000E+00  0.00000000E+00  0.00000000E+00
  0.00000000E+00  0.00000000E+00  0.00000000E+00
  0.00000000E+00  0.00000000E+00  0.00000000E+00
  0.00000000E+00  0.00000000E+00  0.00000000E+00
  0.00000000E+00  0.00000000E+00  0.00000000E+00
  0.00000000E+00  0.00000000E+00  0.00000000E+00
  0.00000000E+00  0.00000000E+00  0.00000000E+00
  0.00000000E+00  0.00000000E+00  0.00000000E+00
  0.00000000E+00  0.00000000E+00  0.00000000E+00
