Pt-hcp
2.635
1.000000 0.000000 0.000000
0.500000 0.866025 0.000000
0.000000 0.000000 1.59
Pt
2
direct
0.000000 0.000000 0.000000 Pt
0.333333 0.333333 0.333333 Pt
