Pd
   1.00000000000000     
   7.9120001792999997   0.0000000000000000   0.0000000000000000
   0.0000000000000000   7.9120001792999997   0.0000000000000000
   0.0000000000000000   0.0000000000000000  23.9340000153000005
Pd
33  
Selective dynamics
Direct
  0.0000000000000000  0.2500000000000000  0.0000000000000000 F F F
  0.2500000000000000  0.0000000000000000  0.0000000000000000 F F F
  0.5000000000000000  0.2500000000000000  0.0000000000000000 F F F
  0.7500000000000000  0.0000000000000000  0.0000000000000000 F F F
  0.0000000000000000  0.7500000000000000  0.0000000000000000 F F F
  0.2500000000000000  0.5000000000000000  0.0000000000000000 F F F
  0.5000000000000000  0.7500000000000000  0.0000000000000000 F F F
  0.7500000000000000  0.5000000000000000  0.0000000000000000 F F F
  0.0000000000000000  0.0000000000000000  0.0826399999999978 F F F
  0.2500000000000000  0.2500000000000000  0.0826399999999978 F F F
  0.5000000000000000  0.0000000000000000  0.0826399999999978 F F F
  0.7500000000000000  0.2500000000000000  0.0826399999999978 F F F
  0.0000000000000000  0.5000000000000000  0.0826399999999978 F F F
  0.2500000000000000  0.7500000000000000  0.0826399999999978 F F F
  0.5000000000000000  0.5000000000000000  0.0826399999999978 F F F
  0.7500000000000000  0.7500000000000000  0.0826399999999978 F F F
  0.0000000000000000  0.2500000000000000  0.1643831379523350 T T T
  0.2493539604280390  0.0001202216049734  0.1644693352746320 T T T
  0.5000000000000000  0.2500000000000000  0.1654692356699600 T T T
  0.7506460395719610  0.0001202216049734  0.1644693352746320 T T T
  0.0000000000000000  0.7500000000000000  0.1645244823116200 T T T
  0.2493539604280390  0.4998797783950270  0.1644693352746320 T T T
  0.5000000000000000  0.7500000000000000  0.1653758663112870 T T T
  0.7506460395719610  0.4998797783950270  0.1644693352746320 T T T
  0.0000000000000000  0.0002851164461219  0.2463779137698200 T T T
  0.2440386015317340  0.2500000000000000  0.2462659247455580 T T T
  0.5000000000000000  0.0002083753484783  0.2460979238365720 T T T
  0.7559613984682660  0.2500000000000000  0.2462659247455580 T T T
  0.0000000000000000  0.4997148835538780  0.2463779137698200 T T T
  0.2441153426293780  0.7500000000000000  0.2462099128608340 T T T
  0.7558846573706220  0.7500000000000000  0.2462099128608340 T T T
  0.5000000000000000  0.4997916246515220  0.2460979238365720 T T T
  0.5000000000000000  0.0000000000000071  0.3168815724058830 T T T
