CONTCAR\(1\1\1)\(0\0\1)\(2)
1.0
        7.7123999596         0.0000000000         0.0000000000
       -3.8561999798         6.6791342891         0.0000000000
        0.0000000000         0.0000000000        24.2971992493
   Cu
   36
Direct
0.000000000000	0.000000000000	0.000000000000	F	F	F
0.333330005000	0.000000000000	0.000000000000	F	F	F
0.666670026000	0.000000000000	0.000000000000	F	F	F
-0.000000006000	0.333329994000	0.000000000000	F	F	F
0.333329999000	0.333329994000	0.000000000000	F	F	F
0.666670036000	0.333329994000	0.000000000000	F	F	F
0.000000014000	0.666670054000	0.000000000000	F	F	F
0.333330019000	0.666670054000	0.000000000000	F	F	F
0.666670040000	0.666670054000	0.000000000000	F	F	F
0.111110007000	0.222220014000	0.086389999000	F	F	F
0.444440012000	0.222220014000	0.086389999000	F	F	F
0.777779971000	0.222220014000	0.086389999000	F	F	F
0.111109997000	0.555559985000	0.086389999000	F	F	F
0.444440002000	0.555559985000	0.086389999000	F	F	F
0.777779992000	0.555559985000	0.086389999000	F	F	F
0.111110012000	0.888890050000	0.086389999000	F	F	F
0.444440017000	0.888890050000	0.086389999000	F	F	F
0.777780007000	0.888890050000	0.086389999000	F	F	F
0.222220006000	0.111110007000	0.172779998000	T	T	T
0.555559981000	0.111110007000	0.172779998000	T	T	T
0.888890016000	0.111110007000	0.172779998000	T	T	T
0.222220014000	0.444440027000	0.172779998000	T	T	T
0.555560004000	0.444440027000	0.172779998000	T	T	T
0.888890040000	0.444440027000	0.172779998000	T	T	T
0.222220013000	0.777780016000	0.172779998000	T	T	T
0.555560003000	0.777780016000	0.172779998000	T	T	T
0.888890039000	0.777780016000	0.172779998000	T	T	T
0.000000000000	0.000000000000	0.259169988000	T	T	T
0.333330005000	0.000000000000	0.259169988000	T	T	T
0.666670026000	0.000000000000	0.259169988000	T	T	T
-0.000000006000	0.333329994000	0.259169988000	T	T	T
0.333329999000	0.333329994000	0.259169988000	T	T	T
0.666670036000	0.333329994000	0.259169988000	T	T	T
0.000000014000	0.666670054000	0.259169988000	T	T	T
0.333330019000	0.666670054000	0.259169988000	T	T	T
0.666670040000	0.666670054000	0.259169988000	T	T	T


