Cu   Ag
   1.00000000000000     
   7.7123999595999999   0.0000000000000000   0.0000000000000000
  -3.8561999798000000   6.6791342891000003   0.0000000000000000
   0.0000000000000000   0.0000000000000000  24.2971992493000002
Cu   Ag
36  1  
Selective dynamics
Direct
  0.3333305525354080  0.6666695204645950  0.9999811661402800 F F F
  0.3333315515646830  0.9999996753393110  0.9999812719808430 F F F
  0.0000003386606906  0.6666685074353180  0.9999812719808430 F F F
  0.0000010634884262  0.9999989365115740  0.9999813717773450 F F F
  0.3333337411815340  0.3333335808257800  0.9999816025010870 F F F
  0.6666664531742230  0.6666663118184670  0.9999816025010870 F F F
  0.6666655004715950  0.9999985534387010  0.9999816611816290 F F F
  0.0000014405612987  0.3333345195284070  0.9999816611816290 F F F
  0.6666686380171289  0.3333313919828740  0.9999818692555490 F F F
  0.4444423232092660  0.2222230080111490  0.0865400182352687 F F F
  0.7777769979888520  0.5555576737907370  0.0865400182352687 F F F
  0.1111084043854260  0.5555577238153550  0.0865400267559835 F F F
  0.4444422781846460  0.8888916426145740  0.0865400267559835 F F F
  0.4444415944884670  0.5555583925115360  0.0865401540706898 F F F
  0.7777788178657590  0.2222211671342440  0.0865401715436818 F F F
  0.1111094507313270  0.8888906112686710  0.0865404629002100 F F F
  0.1111099140269050  0.2222221875401760  0.0865406647606477 F F F
  0.7777778334598220  0.8888901429730960  0.0865406647606477 F F F
  0.2368323225111910  0.0964997710558890  0.1730005095175570 T T T
  0.9039409352216839  0.7641303171762670  0.1734712944644490 T T T
  0.9035314545869750  0.0965178231482113  0.1732875816228230 T T T
  0.2366477756269350  0.7633639154487500  0.1737293344649300 T T T
  0.5692059367949370  0.4293908162395470  0.1734718051544060 T T T
  0.5699726673750120  0.0966818048927465  0.1737294792526280 T T T
  0.9036758908961670  0.4296580299036990  0.1736602579009200 T T T
  0.2368146305919720  0.4298014609020410  0.1732880262877640 T T T
  0.5698736559470849  0.7634610578188730  0.1737440919487840 T T T
  0.3492714369177680  0.6503353843842560  0.2593613624255650 T T T
  0.3501257147543200  0.9832102623383610  0.2591745765529790 T T T
  0.0158560202298830  0.6507454476751630  0.2591915311861680 T T T
  0.3523073638133950  0.3195477943928040  0.2588013738760040 T T T
  0.6826929629658950  0.6506398020326780  0.2587408168433570 T T T
  0.0137848782918084  0.9810272855079700  0.2588016046000160 T T T
  0.6830017510719700  0.9840603047254820  0.2593619597000370 T T T
  0.0145280921062962  0.3188031178015150  0.2589415030095310 T T T
  0.6825895832658870  0.3174730747435320  0.2591920262275240 T T T
  0.1664795581723770  0.1668513906594880  0.3452713147410410 T T T
