Cu   Ag
   1.00000000000000     
   7.7123999595999999   0.0000000000000000   0.0000000000000000
  -3.8561999798000000   6.6791342891000003   0.0000000000000000
   0.0000000000000000   0.0000000000000000  24.2971992493000002
Cu   Ag
36  1  
Selective dynamics
Direct
  0.3333305525354080  0.6666695204645950  0.9999811661402800 F F F
  0.3333315515646830  0.9999996753393110  0.9999812719808430 F F F
  0.0000003386606906  0.6666685074353180  0.9999812719808430 F F F
  0.0000010634884262  0.9999989365115740  0.9999813717773450 F F F
  0.3333337411815340  0.3333335808257800  0.9999816025010870 F F F
  0.6666664531742230  0.6666663118184670  0.9999816025010870 F F F
  0.6666655004715950  0.9999985534387010  0.9999816611816290 F F F
  0.0000014405612987  0.3333345195284070  0.9999816611816290 F F F
  0.6666686380171289  0.3333313919828740  0.9999818692555490 F F F
  0.4444423232092660  0.2222230080111490  0.0865400182352687 F F F
  0.7777769979888520  0.5555576737907370  0.0865400182352687 F F F
  0.1111084043854260  0.5555577238153550  0.0865400267559835 F F F
  0.4444422781846460  0.8888916426145740  0.0865400267559835 F F F
  0.4444415944884670  0.5555583925115360  0.0865401540706898 F F F
  0.7777788178657590  0.2222211671342440  0.0865401715436818 F F F
  0.1111094507313270  0.8888906112686710  0.0865404629002100 F F F
  0.1111099140269050  0.2222221875401760  0.0865406647606477 F F F
  0.7777778334598220  0.8888901429730960  0.0865406647606477 F F F
  0.2440377812559120  0.0892943123111678  0.1732753043636780 T T T
  0.9112185234679020  0.7568118849954080  0.1738375812611390 T T T
  0.9110526648248940  0.0893205888182322  0.1737061973094210 T T T
  0.2437087129555810  0.7560817723370620  0.1739395855722560 T T T
  0.5765243689757180  0.4221132279931650  0.1738380919510970 T T T
  0.5772548105580240  0.0896208675641077  0.1739397303599550 T T T
  0.9108203662447070  0.4225135545554790  0.1741214482081690 T T T
  0.2440118649208070  0.4222802506696650  0.1737066419743630 T T T
  0.5771067658914650  0.7562279478676790  0.1739616387440820 T T T
  0.3573049981720260  0.6422986024971780  0.2594799305777400 T T T
  0.3585854897593350  0.9747504873348301  0.2591995095946300 T T T
  0.0239545372814263  0.6428708893949771  0.2597275232099530 T T T
  0.3598277225786570  0.3116734436754810  0.2592623489105180 T T T
  0.6906202956464610  0.6427124693550540  0.2590509389913510 T T T
  0.0216592290048823  0.9735069267462890  0.2592625796346650 T T T
  0.6910385329609380  0.9760267434710670  0.2594805278520910 T T T
  0.0227744054983248  0.3105568044113980  0.2594724226906350 T T T
  0.6904641415485030  0.3093745576916400  0.2597280182513090 T T T
  0.1941612617960690  0.1391691106681920  0.3457174029272350 T T T
