HH
1
15.0 0.0 0.0
0.0 15.0 0.0
0.0 0.0 15.0
H
1
C
0.0 0.0 0.0  
