CONTCAR\(1\1\1)\(0\0\1)
1.0
        2.8178999424         0.0000000000         0.0000000000
       -1.4089499712         2.4403729354         0.0000000000
        0.0000000000         0.0000000000        31.1054992676
   Pt
    6
Selective
Cartesian
     0.093159795         1.788256407         0.000000000       F F F
     0.093159795         1.788256407         6.902310371       T T T
     1.502095580         0.974806964         9.203184128       T T T
     1.502095580         0.974806964         2.300873756       F F F
     0.093145683         0.161333054         4.601436615       T T T
     0.093145683         0.161333054        11.504057884       T T T

