X-X
1.0
20.0 0.0 0.0
0.0 20.0 0.0
0.0 0.0 20.0
O
2
Selective
Car
0 0 0 F F F
1.0 0 0 T F F
