SYSTEM=Cu
ISTART=0
ICHARGE=2
ISMEAR=0
SIGMA=0.05
ENCUT=500
PREC=Accurate
VOSKOWN=1

IBRION=2
EDIFF=1E-5
EDIFFG=0.0001
NELM=200
NSW=100
ISIF=3
