Cu                                      
   1.00000000000000     
     2.5702647229478583   -0.0000000000037950   -0.0000000000026835
     1.2851323615173560    2.2259145445453798   -0.0000000000036657
     1.2851323615173560    0.7419715148761463    2.0986123583844303
   Cu
     1
Direct
 -0.0000000000000000 -0.0000000000000000  0.0000000000000000
 
  0.00000000E+00  0.00000000E+00  0.00000000E+00
