Pd                                      
   1.00000000000000     
     2.7992655600728069    0.0000000000010108    0.0000000000007147
     1.3996327800881541    2.4242350869931881    0.0000000000009764
     1.3996327800881541    0.8080783623659001    2.2855907589355855
   Pd
     1
Direct
 -0.0000000000000000 -0.0000000000000000 -0.0000000000000000
 
  0.00000000E+00  0.00000000E+00  0.00000000E+00
