CONTCARLiH1x1
1.0
        8.0332002640         0.0000000000         0.0000000000
        0.0000000000         8.0332002640         0.0000000000
        0.0000000000         0.0000000000         8.0332002640
   Li    H
   32   31
Direct
     0.000000000         0.000000000         0.000000000
     0.000000000         0.250000000         0.250000000
     0.250000000         0.000000000         0.250000000
     0.250000000         0.250000000         0.000000000
     0.500000000         0.000000000         0.000000000
     0.500000000         0.250000000         0.250000000
     0.750000030         0.000000000         0.250000000
     0.750000030         0.250000000         0.000000000
     0.000000000         0.500000000         0.000000000
     0.000000000         0.750000030         0.250000000
     0.250000000         0.500000000         0.250000000
     0.250000000         0.750000030         0.000000000
     0.500000000         0.500000000         0.000000000
     0.500000000         0.750000030         0.250000000
     0.750000030         0.500000000         0.250000000
     0.750000030         0.750000030         0.000000000
     0.000000000         0.000000000         0.500000000
     0.000000000         0.250000000         0.750000030
     0.250000000        -0.000000000         0.750000030
     0.250000000         0.250000000         0.500000000
     0.500000000         0.000000000         0.500000000
     0.500000000         0.250000000         0.750000030
     0.750000030        -0.000000000         0.750000030
     0.750000030         0.250000000         0.500000000
     0.000000000         0.500000000         0.500000000
    -0.000000000         0.750000030         0.750000030
     0.250000000         0.500000000         0.750000030
     0.250000000         0.750000030         0.500000000
     0.500000000         0.500000000         0.500000000
     0.500000000         0.750000030         0.750000030
     0.750000030         0.500000000         0.750000030
     0.750000030         0.750000030         0.500000000
     0.250000000         0.250000000         0.250000000
     0.250000000         0.000000000         0.000000000
     0.000000000         0.250000000         0.000000000
     0.000000000         0.000000000         0.250000000
     0.750000030         0.250000000         0.250000000
     0.750000030         0.000000000         0.000000000
     0.500000000         0.250000000         0.000000000
     0.500000000         0.000000000         0.250000000
     0.250000000         0.750000030         0.250000000
     0.250000000         0.500000000         0.000000000
    -0.000000000         0.750000030         0.000000000
     0.000000000         0.500000000         0.250000000
     0.750000030         0.750000030         0.250000000
     0.750000030         0.500000000         0.000000000
     0.500000000         0.750000030         0.000000000
     0.500000000         0.500000000         0.250000000
     0.250000000         0.250000000         0.750000030
     0.250000000         0.000000000         0.500000000
     0.000000000         0.250000000         0.500000000
    -0.000000000        -0.000000000         0.750000030
     0.750000030         0.250000000         0.750000030
     0.750000030         0.000000000         0.500000000
     0.500000000         0.250000000         0.500000000
     0.500000000        -0.000000000         0.750000030
     0.250000000         0.750000030         0.750000030
     0.250000000         0.500000000         0.500000000
     0.000000000         0.750000030         0.500000000
     0.000000000         0.500000000         0.750000030
     0.750000030         0.750000030         0.750000030
     0.750000030         0.500000000         0.500000000
     0.500000000         0.750000030         0.500000000

