Li
1.0
        3.5092000961         0.0000000000         0.0000000000
        0.0000000000         3.5092000961         0.0000000000
        0.0000000000         0.0000000000         3.5092000961
   Li
    2
Direct
     0.000000000         0.000000000         0.000000000
     0.500000000         0.500000000         0.500000000

