4x4CONCAR
1.0
       10.2832002640         0.0000000000         0.0000000000
       -5.1416001320         8.9055126608         0.0000000000
        0.0000000000         0.0000000000        18.0000000000
   Cu
   64
S
Direct
0.0000000000000	0.0000000000000	0.0000000000000	F 	F	F
0.2500000000000	0.0000000000000	0.0000000000000	F 	F	F
0.5000000000000	0.0000000000000	0.0000000000000	F 	F	F
0.7500000230000	0.0000000000000	0.0000000000000	F 	F	F
0.0000000020000	0.2500000040000	0.0000000000000	F 	F	F
0.2500000020000	0.2500000040000	0.0000000000000	F 	F	F
0.5000000140000	0.2500000040000	0.0000000000000	F 	F	F
0.7500000370000	0.2500000040000	0.0000000000000	F 	F	F
0.0000000040000	0.5000000080000	0.0000000000000	F 	F	F
0.2500000040000	0.5000000080000	0.0000000000000	F 	F	F
0.5000000040000	0.5000000080000	0.0000000000000	F 	F	F
0.7500000510000	0.5000000080000	0.0000000000000	F 	F	F
-0.0000000190000	0.7499999860000	0.0000000000000	F 	F	F
0.2499999810000	0.7499999860000	0.0000000000000	F 	F	F
0.4999999810000	0.7499999860000	0.0000000000000	F 	F	F
0.7500000040000	0.7499999860000	0.0000000000000	F 	F	F
0.0833300030000	0.1666699980000	0.1166099970000	F 	F	F
0.3333299910000	0.1666699980000	0.1166099970000	F 	F	F
0.5833299910000	0.1666699980000	0.1166099970000	F 	F	F
0.8333299680000	0.1666699980000	0.1166099970000	F 	F	F
0.0833300050000	0.4166700020000	0.1166099970000	F 	F	F
0.3333300050000	0.4166700020000	0.1166099970000	F 	F	F
0.5833299820000	0.4166700020000	0.1166099970000	F 	F	F
0.8333299820000	0.4166700020000	0.1166099970000	F 	F	F
0.0833300090000	0.6666700330000	0.1166099970000	F 	F	F
0.3333300090000	0.6666700330000	0.1166099970000	F 	F	F
0.5833299850000	0.6666700330000	0.1166099970000	F 	F	F
0.8333299620000	0.6666700330000	0.1166099970000	F 	F	F
0.0833300360000	0.9166700640000	0.1166099970000	F 	F	F
0.3333300360000	0.9166700640000	0.1166099970000	F 	F	F
0.5833300120000	0.9166700640000	0.1166099970000	F 	F	F
0.8333299890000	0.9166700640000	0.1166099970000	F 	F	F
0.1666699960000	0.0833299990000	0.2312699950000	T	T	T
0.4166699730000	0.0833299990000	0.2312699950000	T	T	T
0.6666699960000	0.0833299990000	0.2312699950000	T	T	T
0.9166699730000	0.0833299990000	0.2312699950000	T	T	T
0.1666700020000	0.3333300100000	0.2312699950000	T	T	T
0.4166699900000	0.3333300100000	0.2312699950000	T	T	T
0.6666700130000	0.3333300100000	0.2312699950000	T	T	T
0.9166699900000	0.3333300100000	0.2312699950000	T	T	T
0.1666699880000	0.5833299610000	0.2312699950000	T	T	T
0.4166699770000	0.5833299610000	0.2312699950000	T	T	T
0.6666700000000	0.5833299610000	0.2312699950000	T	T	T
0.9166699770000	0.5833299610000	0.2312699950000	T	T	T
0.1666700270000	0.8333299920000	0.2312699950000	T	T	T
0.4166700040000	0.8333299920000	0.2312699950000	T	T	T
0.6666700270000	0.8333299920000	0.2312699950000	T	T	T
0.9166700040000	0.8333299920000	0.2312699950000	T	T	T
0.0000000000000	0.0000000000000	0.3458400040000	T	T	T
0.2500000000000	0.0000000000000	0.3458400040000	T	T	T
0.5000000000000	0.0000000000000	0.3458400040000	T	T	T
0.7500000230000	0.0000000000000	0.3458400040000	T	T	T
0.0000000020000	0.2500000040000	0.3458400040000	T	T	T
0.2500000020000	0.2500000040000	0.3458400040000	T	T	T
0.5000000140000	0.2500000040000	0.3458400040000	T	T	T
0.7500000370000	0.2500000040000	0.3458400040000	T	T	T
0.0000000040000	0.5000000080000	0.3458400040000	T	T	T
0.2500000040000	0.5000000080000	0.3458400040000	T	T	T
0.5000000040000	0.5000000080000	0.3458400040000	T	T	T
0.7500000510000	0.5000000080000	0.3458400040000	T	T	T
-0.0000000190000	0.7499999860000	0.3458400040000	T	T	T
0.2499999810000	0.7499999860000	0.3458400040000	T	T	T
0.4999999810000	0.7499999860000	0.3458400040000	T	T	T
0.7500000040000	0.7499999860000	0.3458400040000	T	T	T

