3x3
1.0
        7.7111001015         0.0000000000         0.0000000000
        0.0000000000         7.7111001015         0.0000000000
        0.0000000000         0.0000000000        23.4526004791
   Cu
   36
S
Direct
0.1666700010	0.1666700010	0.0000000000	F	F	F
0.5000000000	0.1666700010	0.0000000000	F	F	F
0.8333299840	0.1666700010	0.0000000000	F	F	F
0.1666700010	0.5000000000	0.0000000000	F	F	F
0.5000000000	0.5000000000	0.0000000000	F	F	F
0.8333299840	0.5000000000	0.0000000000	F	F	F
0.1666700010	0.8333299840	0.0000000000	F	F	F
0.5000000000	0.8333299840	0.0000000000	F	F	F
0.8333299840	0.8333299840	0.0000000000	F	F	F
0.0000000000	0.0000000000	0.0775000000	F	F	F
0.3333300150	0.0000000000	0.0775000000	F	F	F
0.6666700470	0.0000000000	0.0775000000	F	F	F
0.0000000000	0.3333300150	0.0775000000	F	F	F
0.3333300150	0.3333300150	0.0775000000	F	F	F
0.6666700470	0.3333300150	0.0775000000	F	F	F
0.0000000000	0.6666700470	0.0775000000	F	F	F
0.3333300150	0.6666700470	0.0775000000	F	F	F
0.6666700470	0.6666700470	0.0775000000	F	F	F
0.1666700010	0.1666700010	0.1554706194	T	T	T
0.5000000000	0.1666700010	0.1554706194	T	T	T
0.8333299840	0.1666700010	0.1554706194	T	T	T
0.1666700010	0.5000000000	0.1554706194	T	T	T
0.5000000000	0.5000000000	0.1554706194	T	T	T
0.8333299840	0.5000000000	0.1554706194	T	T	T
0.1666700010	0.8333299840	0.1554706194	T	T	T
0.5000000000	0.8333299840	0.1554706194	T	T	T
0.8333299840	0.8333299840	0.1554706194	T	T	T
0.0000000000	0.0000000000	0.2309401930	T	T	T
0.3333300150	0.0000000000	0.2309401930	T	T	T
0.6666700470	0.0000000000	0.2309401930	T	T	T
0.0000000000	0.3333300150	0.2309401930	T	T	T
0.3333300150	0.3333300150	0.2309401930	T	T	T
0.6666700470	0.3333300150	0.2309401930	T	T	T
0.0000000000	0.6666700470	0.2309401930	T	T	T
0.3333300150	0.6666700470	0.2309401930	T	T	T
0.6666700470	0.6666700470	0.2309401930	T	T	T

