SYSTEM=hcn
ISTART=0
ICHARGE=2
VOSKOWN=1
ISMEAR=0
SIGMA=0.01

ENCUT=500
PREC=Accurate


IBRION=2
EDIFF=1E-4
EDIFFG=1E-3

NELM=200
NSW=100
#POTIM=0.2
ISIF=2


