Pd   H 
   1.00000000000000     
   4.0135501792757200   0.0000000000000000   0.0000000000000000
   0.0000000000000000   4.0135501792757200   0.0000000000000000
   0.0000000000000000   0.0000000000000000   4.0135501792757200
Pd   H 
4  1  
Direct
  0.0000000000000000  0.0000000000000000  0.0000000000000000  
  0.0000000000000000  0.5000000000000000  0.5000000000000000  
  0.5000000000000000  0.0000000000000000  0.5000000000000000  
  0.5000000000000000  0.5000000000000000  0.0000000000000000  
  0.5000000000000000  0.5000000000000000  0.5000000000000000  
