HCN
1.0
       20.0000000000         0.0000000000         0.0000000000
        0.0000000000        20.0000000000         0.0000000000
        0.0000000000         0.0000000000        20.0000000000
    C    N    H
    1    1    1
S
Cartesian
    10.037983894         0.000000000         0.000000000  F F F
    11.197109222         0.0         0.000000000          T F F
     8.964907646         0.400000000         0.400000000  T T T

