Si
1
  10.8951956853286003   0.0000000000000000   0.0000000000000000
   0.0000000000000000  10.8951956853286003   0.0000000000000000
   0.0000000000000000   0.0000000000000000  10.8951956853286003
Si
63  
Direct
  0.0978581987608551  0.0978581987608551  0.0978581987608551  
  0.0018860206373761  0.2452707072539690  0.2452707072539690  
  0.2452707072539690  0.2452707072539690  0.0018860206373761  
  0.2452707072539690  0.0018860206373761  0.2452707072539690  
  0.3732466386677510  0.1248354598140850  0.3732466386677510  
  0.1248354598140850  0.3732466386677510  0.3732466386677510  
  0.3732466386677510  0.3732466386677510  0.1248354598140850  
  0.4998744593645220  0.0000458163765632  0.0000458163765632  
  0.4997395590537730  0.2495111789291410  0.2495111789291410  
  0.7532777032267520  0.2468019990321610  0.9997369038939420  
  0.7532777032267520  0.9997369038939420  0.2468019990321610  
  0.8758595003245550  0.1248327041467320  0.3737418806145690  
  0.6256276888533709  0.1247709192075080  0.1247709192075080  
  0.6250650164299270  0.3748733615221270  0.3748733615221270  
  0.8758595003245550  0.3737418806145690  0.1248327041467320  
  0.0000458163765632  0.4998744593645220  0.0000458163765632  
  0.9997369038939420  0.7532777032267520  0.2468019990321610  
  0.2468019990321610  0.7532777032267520  0.9997369038939420  
  0.2495111789291410  0.4997395590537730  0.2495111789291410  
  0.3748733615221270  0.6250650164299270  0.3748733615221270  
  0.1247709192075080  0.6256276888533709  0.1247709192075080  
  0.1248327041467320  0.8758595003245550  0.3737418806145690  
  0.3737418806145690  0.8758595003245550  0.1248327041467320  
  0.4997754149998330  0.4997754149998330  0.0000205466195512  
  0.4999103153105820  0.7506675676944610  0.2495364486861530  
  0.7533767475914410  0.7533767475914410  0.0003294591021722  
  0.7506675676944610  0.4999103153105820  0.2495364486861530  
  0.8751913425946990  0.6260959545001290  0.3737884708518050  
  0.6261229308001890  0.6261229308001890  0.1248972447533090  
  0.6260959545001290  0.8751913425946990  0.3737884708518050  
  0.8835159955926301  0.8835159955926301  0.1170526390002090  
  0.0000458163765632  0.0000458163765632  0.4998744593645220  
  0.9997369038939420  0.2468019990321610  0.7532777032267520  
  0.2495111789291410  0.2495111789291410  0.4997395590537730  
  0.2468019990321610  0.9997369038939420  0.7532777032267520  
  0.3737418806145690  0.1248327041467320  0.8758595003245550  
  0.1247709192075080  0.1247709192075080  0.6256276888533709  
  0.1248327041467320  0.3737418806145690  0.8758595003245550  
  0.3748733615221270  0.3748733615221270  0.6250650164299270  
  0.4997754149998330  0.0000205466195512  0.4997754149998330  
  0.4999103153105820  0.2495364486861530  0.7506675676944610  
  0.7506675676944610  0.2495364486861530  0.4999103153105820  
  0.7533767475914410  0.0003294591021722  0.7533767475914410  
  0.8835159955926301  0.1170526390002090  0.8835159955926301  
  0.6261229308001890  0.1248972447533090  0.6261229308001890  
  0.6260959545001290  0.3737884708518050  0.8751913425946990  
  0.8751913425946990  0.3737884708518050  0.6260959545001290  
  0.0000205466195512  0.4997754149998330  0.4997754149998330  
  0.0003294591021722  0.7533767475914410  0.7533767475914410  
  0.2495364486861530  0.7506675676944610  0.4999103153105820  
  0.2495364486861530  0.4999103153105820  0.7506675676944610  
  0.3737884708518050  0.6260959545001290  0.8751913425946990  
  0.1248972447533090  0.6261229308001890  0.6261229308001890  
  0.1170526390002090  0.8835159955926301  0.8835159955926301  
  0.3737884708518050  0.8751913425946990  0.6260959545001290  
  0.4999923912730370  0.4999923912730370  0.4999923912730370  
  0.4998574909622880  0.7504505914212580  0.7504505914212580  
  0.7504505914212580  0.7504505914212580  0.4998574909622880  
  0.7504505914212580  0.4998574909622880  0.7504505914212580  
  0.8753176681405000  0.6256546651534310  0.8753176681405000  
  0.6250380401298660  0.6250380401298660  0.6250380401298660  
  0.6256546651534310  0.8753176681405000  0.8753176681405000  
  0.8753176681405000  0.8753176681405000  0.6256546651534310  
