CONTCAR\(1\1\1)\(0\0\1)\(3)
1.0
        2.8178999424         0.0000000000         0.0000000000
       -1.4089499712         2.4403729354         0.0000000000
        0.0000000000         0.0000000000        21.9022998810
   Pt
    4
S
Direct
     0.000000000         0.000000000         0.315140002 T T T
     0.000000000         0.000000000         0.000000000 F F F
     0.333329990         0.666670007         0.210090003 T T T
     0.666670032         0.333329996         0.105049998 F F F
