Pt111_danbao.CONTCAR
1.0
        5.6357998848         0.0000000000         0.0000000000
       -2.8178999424         4.8807458709         0.0000000000
        0.0000000000         0.0000000000        21.9022998810
   Pt
   16
S
Direct
0.000000000	0.000000000	0.000000000	F	F	F
0.500000000	0.000000000	0.000000000	F	F	F
0.000000001	0.500000002	0.000000000	F	F	F
0.500000001	0.500000002	0.000000000	F	F	F
0.333339979	0.166659991	0.105049998	F	F	F
0.833340001	0.166659991	0.105049998	F	F	F
0.333339980	0.666659993	0.105049998	F	F	F
0.833340023	0.666659993	0.105049998	F	F	F
0.166669993	0.333339986	0.210090003	T	T	T
0.666670035	0.333339986	0.210090003	T	T	T
0.166669985	0.833340012	0.210090003	T	T	T
0.666670027	0.833340012	0.210090003	T	T	T
0.000000000	0.000000000	0.315140002	T	T	T
0.500000000	0.000000000	0.315140002	T	T	T
0.000000001	0.500000002	0.315140002	T	T	T
0.500000001	0.500000002	0.315140002	T	T	T
