C    N    H 
   1.00000000000000     
  20.0000000000000000   0.0000000000000000   0.0000000000000000
   0.0000000000000000  20.0000000000000000   0.0000000000000000
   0.0000000000000000   0.0000000000000000  20.0000000000000000
C    N    H 
1  1  1  
Direct
  0.4999187638672210  0.5000000000000000  0.4902356946424430  
  0.5482084169592910  0.5000000000000000  0.5000320133481680  
  0.4552061525068250  0.5000000000000000  0.5083989586760610  
