Pd   H 
   1.00000000000000     
   4.0361505314813497   0.0000000000000000   0.0000000000000000
   0.0000000000000000   4.0361505314813497   0.0000000000000000
   0.0000000000000000   0.0000000000000000   4.0361505314813497
Pd   H 
4  1  
Direct
  0.9933211184503520  0.9933211184503520  0.9933211184503520  
  0.9933211184503520  0.5066788815496485  0.5066788815496485  
  0.5066788815496485  0.9933211184503520  0.5066788815496485  
  0.5066788815496485  0.5066788815496485  0.9933211184503520  
  0.2500000000000000  0.2500000000000000  0.2500000000000000  
