Pd
   1.00000000000000     
   7.9120001792999997   0.0000000000000000   0.0000000000000000
   0.0000000000000000   7.9120001792999997   0.0000000000000000
   0.0000000000000000   0.0000000000000000  23.9340000153000005
Pd
33  
Selective dynamics
Direct
  0.0000000000000000  0.2500000000000000  0.0000000000000000 F F F
  0.2500000000000000  0.0000000000000000  0.0000000000000000 F F F
  0.5000000000000000  0.2500000000000000  0.0000000000000000 F F F
  0.7500000000000000  0.0000000000000000  0.0000000000000000 F F F
  0.0000000000000000  0.7500000000000000  0.0000000000000000 F F F
  0.2500000000000000  0.5000000000000000  0.0000000000000000 F F F
  0.5000000000000000  0.7500000000000000  0.0000000000000000 F F F
  0.7500000000000000  0.5000000000000000  0.0000000000000000 F F F
  0.0000000000000000  0.0000000000000000  0.0826399999999978 F F F
  0.2500000000000000  0.2500000000000000  0.0826399999999978 F F F
  0.5000000000000000  0.0000000000000000  0.0826399999999978 F F F
  0.7500000000000000  0.2500000000000000  0.0826399999999978 F F F
  0.0000000000000000  0.5000000000000000  0.0826399999999978 F F F
  0.2500000000000000  0.7500000000000000  0.0826399999999978 F F F
  0.5000000000000000  0.5000000000000000  0.0826399999999978 F F F
  0.7500000000000000  0.7500000000000000  0.0826399999999978 F F F
  0.0000000000000000  0.2500000000000000  0.1641027038505950 T T T
  0.2493875552830080  0.0004372163785149  0.1643843247563770 T T T
  0.5000000000000000  0.2500000000000000  0.1649686026801050 T T T
  0.7506124447169920  0.0004372163785149  0.1643843247563770 T T T
  0.0000000000000000  0.7500000000000000  0.1646537134653630 T T T
  0.2493875552830080  0.4995627836214850  0.1643843247563770 T T T
  0.5000000000000000  0.7500000000000000  0.1656440600984650 T T T
  0.7506124447169920  0.4995627836214850  0.1643843247563770 T T T
  0.0000000000000000  0.0020435344314436  0.2463182331093630 T T T
  0.2460644820985610  0.2500000000000000  0.2462809506301940 T T T
  0.5000000000000000  0.0057829732413737  0.2459961975143440 T T T
  0.7539355179014390  0.2500000000000000  0.2462809506301940 T T T
  0.0000000000000000  0.4979564655685560  0.2463182331093630 T T T
  0.2423250432886230  0.7500000000000000  0.2460334799935140 T T T
  0.7576749567113770  0.7500000000000000  0.2460334799935140 T T T
  0.5000000000000000  0.7097363874468460  0.3049089954025850 T T T
  0.5000000000000000  0.4511473059784380  0.2578160455239170 T T T
