Si
1
  10.8951957037496996   0.0000000000000000   0.0000000000000000
   0.0000000000000000  10.8951957037496996   0.0000000000000000
   0.0000000000000000   0.0000000000000000  10.8951957037496996
Si
63  
Direct
  0.0801790887943902  0.0801790887943902  0.0801790887943902  
  0.0034013462956070  0.2443240360174690  0.2443240360174690  
  0.2443240360174690  0.2443240360174690  0.0034013462956070  
  0.2443240360174690  0.0034013462956070  0.2443240360174690  
  0.3728407920957290  0.1247942259241990  0.3728407920957290  
  0.1247942259241990  0.3728407920957290  0.3728407920957290  
  0.3728407920957290  0.3728407920957290  0.1247942259241990  
  0.4997489187290430  0.0000916327531263  0.0000916327531263  
  0.4996409984804440  0.2495539634914370  0.2495539634914370  
  0.7527728069439750  0.2473866195738530  0.9998445027670300  
  0.7527728069439750  0.9998445027670300  0.2473866195738530  
  0.8764441146981170  0.1249403052444550  0.3732369856531830  
  0.6255021532826960  0.1248167353660060  0.1248167353660060  
  0.6250843869040140  0.3747923690000950  0.3747923690000950  
  0.8764441146981170  0.3732369856531830  0.1249403052444550  
  0.0000916327531263  0.4997489187290430  0.0000916327531263  
  0.9998445027670300  0.7527728069439750  0.2473866195738530  
  0.2473866195738530  0.7527728069439750  0.9998445027670300  
  0.2495539634914370  0.4996409984804440  0.2495539634914370  
  0.3747923690000950  0.6250843869040140  0.3747923690000950  
  0.1248167353660060  0.6255021532826960  0.1248167353660060  
  0.1249403052444550  0.8764441146981170  0.3732369856531830  
  0.3732369856531830  0.8764441146981170  0.1249403052444550  
  0.4995508299996660  0.4995508299996660  0.0000410932391023  
  0.4996587502482650  0.7508035517557690  0.2496045030054610  
  0.7529708956733530  0.7529708956733530  0.0002882232251991  
  0.7508035517557690  0.4996587502482650  0.2496045030054610  
  0.8752593898933670  0.6258443942400300  0.3739244564638370  
  0.6258983468401510  0.6258983468401510  0.1249177958026470  
  0.6258443942400300  0.8752593898933670  0.3739244564638370  
  0.8825693109125770  0.8825693109125770  0.1185679692730980  
  0.0000916327531263  0.0000916327531263  0.4997489187290430  
  0.9998445027670300  0.2473866195738530  0.7527728069439750  
  0.2495539634914370  0.2495539634914370  0.4996409984804440  
  0.2473866195738530  0.9998445027670300  0.7527728069439750  
  0.3732369856531830  0.1249403052444550  0.8764441146981170  
  0.1248167353660060  0.1248167353660060  0.6255021532826960  
  0.1249403052444550  0.3732369856531830  0.8764441146981170  
  0.3747923690000950  0.3747923690000950  0.6250843869040140  
  0.4995508299996660  0.0000410932391023  0.4995508299996660  
  0.4996587502482650  0.2496045030054610  0.7508035517557690  
  0.7508035517557690  0.2496045030054610  0.4996587502482650  
  0.7529708956733530  0.0002882232251991  0.7529708956733530  
  0.8825693109125770  0.1185679692730980  0.8825693109125770  
  0.6258983468401510  0.1249177958026470  0.6258983468401510  
  0.6258443942400300  0.3739244564638370  0.8752593898933670  
  0.8752593898933670  0.3739244564638370  0.6258443942400300  
  0.0000410932391023  0.4995508299996660  0.4995508299996660  
  0.0002882232251991  0.7529708956733530  0.7529708956733530  
  0.2496045030054610  0.7508035517557690  0.4996587502482650  
  0.2496045030054610  0.4996587502482650  0.7508035517557690  
  0.3739244564638370  0.6258443942400300  0.8752593898933670  
  0.1249177958026470  0.6258983468401510  0.6258983468401510  
  0.1185679692730980  0.8825693109125770  0.8825693109125770  
  0.3739244564638370  0.8752593898933670  0.6258443942400300  
  0.4999847825460730  0.4999847825460730  0.4999847825460730  
  0.4998768622974740  0.7503695992093620  0.7503695992093620  
  0.7503695992093620  0.7503695992093620  0.4998768622974740  
  0.7503695992093620  0.4998768622974740  0.7503695992093620  
  0.8753604503300080  0.6255561058828170  0.8753604503300080  
  0.6250304343038930  0.6250304343038930  0.6250304343038930  
  0.6255561058828170  0.8753604503300080  0.8753604503300080  
  0.8753604503300080  0.8753604503300080  0.6255561058828170  
