Pt                                      
   1.00000000000000     
    20.0000000000000000    0.0000000000000000    0.0000000000000000
     0.0000000000000000   20.0000000000000000    0.0000000000000000
     0.0000000000000000    0.0000000000000000   20.0000000000000000
   Pt
    13
Direct
  0.3029779865289197  0.2614018476634610  0.0146811286097962
  0.4289270738295165  0.2354426351793872  0.0129436687810504
  0.5569991229310478  0.2359757772529625  0.0023535720890352
  0.3681843565378842  0.3731451165534824  0.0143359609883839
  0.4887330463786758  0.3546007123403143 -0.0157625196328561
  0.6153158332768279  0.3523287221489947  0.0071126659477499
  0.3604593481466250  0.2409498241976043  0.1256126234923788
  0.5044491092210667  0.2318446000612007  0.1189527105892760
  0.4063892919165366  0.3596224557503703  0.1338089634072563
  0.5305740152031306  0.3569507201006948  0.1048909992205764
  0.5634803381892766  0.2969906896866420  0.2139530660240781
  0.4394429752648751  0.2731599791803178  0.2273463355044272
  0.3171199945256283  0.2518280575345957  0.2428652119788406
 
  0.00000000E+00  0.00000000E+00  0.00000000E+00
  0.00000000E+00  0.00000000E+00  0.00000000E+00
  0.00000000E+00  0.00000000E+00  0.00000000E+00
  0.00000000E+00  0.00000000E+00  0.00000000E+00
  0.00000000E+00  0.00000000E+00  0.00000000E+00
  0.00000000E+00  0.00000000E+00  0.00000000E+00
  0.00000000E+00  0.00000000E+00  0.00000000E+00
  0.00000000E+00  0.00000000E+00  0.00000000E+00
  0.00000000E+00  0.00000000E+00  0.00000000E+00
  0.00000000E+00  0.00000000E+00  0.00000000E+00
  0.00000000E+00  0.00000000E+00  0.00000000E+00
  0.00000000E+00  0.00000000E+00  0.00000000E+00
  0.00000000E+00  0.00000000E+00  0.00000000E+00
