4x4CONCAR                               
   1.00000000000000     
    10.2832002639999995    0.0000000000000000    0.0000000000000000
    -5.1416001319999998    8.9055126607999995    0.0000000000000000
     0.0000000000000000    0.0000000000000000   18.0000000000000000
   Cu   H 
    64     1
Selective dynamics
Direct
  0.0000000000000000  0.0000000000000000  0.0000000000000000   F   F   F
  0.2500000000000000  0.0000000000000000  0.0000000000000000   F   F   F
  0.5000000000000000  0.0000000000000000  0.0000000000000000   F   F   F
  0.7500000229999984  0.0000000000000000  0.0000000000000000   F   F   F
  0.0000000020000002  0.2500000040000003  0.0000000000000000   F   F   F
  0.2500000020000002  0.2500000040000003  0.0000000000000000   F   F   F
  0.5000000140000012  0.2500000040000003  0.0000000000000000   F   F   F
  0.7500000369999995  0.2500000040000003  0.0000000000000000   F   F   F
  0.0000000040000003  0.5000000080000007  0.0000000000000000   F   F   F
  0.2500000040000003  0.5000000080000007  0.0000000000000000   F   F   F
  0.5000000040000003  0.5000000080000007  0.0000000000000000   F   F   F
  0.7500000510000007  0.5000000080000007  0.0000000000000000   F   F   F
  0.9999999810000020  0.7499999859999988  0.0000000000000000   F   F   F
  0.2499999810000020  0.7499999859999988  0.0000000000000000   F   F   F
  0.4999999810000020  0.7499999859999988  0.0000000000000000   F   F   F
  0.7500000040000003  0.7499999859999988  0.0000000000000000   F   F   F
  0.0833300030000004  0.1666699980000033  0.1166099969999976   F   F   F
  0.3333299909999994  0.1666699980000033  0.1166099969999976   F   F   F
  0.5833299909999994  0.1666699980000033  0.1166099969999976   F   F   F
  0.8333299680000010  0.1666699980000033  0.1166099969999976   F   F   F
  0.0833300050000005  0.4166700019999965  0.1166099969999976   F   F   F
  0.3333300050000005  0.4166700019999965  0.1166099969999976   F   F   F
  0.5833299820000022  0.4166700019999965  0.1166099969999976   F   F   F
  0.8333299820000022  0.4166700019999965  0.1166099969999976   F   F   F
  0.0833300090000009  0.6666700330000026  0.1166099969999976   F   F   F
  0.3333300090000009  0.6666700330000026  0.1166099969999976   F   F   F
  0.5833299849999989  0.6666700330000026  0.1166099969999976   F   F   F
  0.8333299620000005  0.6666700330000026  0.1166099969999976   F   F   F
  0.0833300359999996  0.9166700640000016  0.1166099969999976   F   F   F
  0.3333300359999996  0.9166700640000016  0.1166099969999976   F   F   F
  0.5833300119999976  0.9166700640000016  0.1166099969999976   F   F   F
  0.8333299889999992  0.9166700640000016  0.1166099969999976   F   F   F
  0.1642770826096467  0.0821406142142405  0.2332887935580347   F   F   F
  0.4168072744941861  0.0836176927394892  0.2317541987871052   F   F   F
  0.6678587593110332  0.0821398857721296  0.2332876502687187   F   F   F
  0.9166501229347270  0.0833009260693686  0.2316841259306557   F   F   F
  0.1668576710312267  0.3332032167788580  0.2320278980051725   F   F   F
  0.4168055033683420  0.3331929034162252  0.2317524104912771   F   F   F
  0.6663823236738007  0.3331918664646908  0.2317541203277351   F   F   F
  0.9163400238038542  0.3332028251657427  0.2320281395784180   F   F   F
  0.1666631863738091  0.5833324557817705  0.2322811968391098   F   F   F
  0.4167956671418626  0.5831407542893748  0.2320278258054574   F   F   F
  0.6678566089878213  0.5857194416685448  0.2332898734224658   F   F   F
  0.9163398166091058  0.5831418229991275  0.2320275222759658   F   F   F
  0.1668575230771193  0.8336598880628716  0.2320277809674588   F   F   F
  0.4167981211111215  0.8336610548986511  0.2320269535096380   F   F   F
  0.6666982797128895  0.8333480740872409  0.2316839780777107   F   F   F
  0.9166593966264514  0.8333379593669327  0.2316911089634644   F   F   F
 -0.0000157714895866 -0.0000043788952585  0.3502029306409415   F   F   F
  0.2500562445885498  0.0000946644441219  0.3468533017184008   F   F   F
  0.5000376253721510  0.0000935626516624  0.3468545527607071   F   F   F
  0.7500024879960475 -0.0000071696875956  0.3502014818215139   F   F   F
  0.0011101225819144  0.2522285715575217  0.3465291202673476   F   F   F
  0.2500486037971544  0.2499608792981695  0.3468535336221882   F   F   F
  0.4999978953661746  0.2500016795356904  0.3468974955622189   F   F   F
  0.7499063553106355  0.2499602256148035  0.3468546582835638   F   F   F
 -0.0001795064954566  0.4999076887833511  0.3470137850408880   F   F   F
  0.2500897256348931  0.4999045419311956  0.3470178670399615   F   F   F
  0.5000355230194936  0.4999477520375405  0.3468543377527034   F   F   F
  0.7499027501717229  0.4999422691915442  0.3468542965227740   F   F   F
  0.0011198590359173  0.7488822238515540  0.3465330360732032   F   F   F
  0.2501006757359888  0.7501979235289769  0.3470228936469519   F   F   F
  0.4977712283780380  0.7488880868279760  0.3465280859353550   F   F   F
  0.7500114032578443  0.7500178135436187  0.3502060535634389   F   F   F
  0.8333347032305943  0.9166612883638262  0.4009587718721594   T   T   T
 
  0.00000000E+00  0.00000000E+00  0.00000000E+00
  0.00000000E+00  0.00000000E+00  0.00000000E+00
  0.00000000E+00  0.00000000E+00  0.00000000E+00
  0.00000000E+00  0.00000000E+00  0.00000000E+00
  0.00000000E+00  0.00000000E+00  0.00000000E+00
  0.00000000E+00  0.00000000E+00  0.00000000E+00
  0.00000000E+00  0.00000000E+00  0.00000000E+00
  0.00000000E+00  0.00000000E+00  0.00000000E+00
  0.00000000E+00  0.00000000E+00  0.00000000E+00
  0.00000000E+00  0.00000000E+00  0.00000000E+00
  0.00000000E+00  0.00000000E+00  0.00000000E+00
  0.00000000E+00  0.00000000E+00  0.00000000E+00
  0.00000000E+00  0.00000000E+00  0.00000000E+00
  0.00000000E+00  0.00000000E+00  0.00000000E+00
  0.00000000E+00  0.00000000E+00  0.00000000E+00
  0.00000000E+00  0.00000000E+00  0.00000000E+00
  0.00000000E+00  0.00000000E+00  0.00000000E+00
  0.00000000E+00  0.00000000E+00  0.00000000E+00
  0.00000000E+00  0.00000000E+00  0.00000000E+00
  0.00000000E+00  0.00000000E+00  0.00000000E+00
  0.00000000E+00  0.00000000E+00  0.00000000E+00
  0.00000000E+00  0.00000000E+00  0.00000000E+00
  0.00000000E+00  0.00000000E+00  0.00000000E+00
  0.00000000E+00  0.00000000E+00  0.00000000E+00
  0.00000000E+00  0.00000000E+00  0.00000000E+00
  0.00000000E+00  0.00000000E+00  0.00000000E+00
  0.00000000E+00  0.00000000E+00  0.00000000E+00
  0.00000000E+00  0.00000000E+00  0.00000000E+00
  0.00000000E+00  0.00000000E+00  0.00000000E+00
  0.00000000E+00  0.00000000E+00  0.00000000E+00
  0.00000000E+00  0.00000000E+00  0.00000000E+00
  0.00000000E+00  0.00000000E+00  0.00000000E+00
  0.00000000E+00  0.00000000E+00  0.00000000E+00
  0.00000000E+00  0.00000000E+00  0.00000000E+00
  0.00000000E+00  0.00000000E+00  0.00000000E+00
  0.00000000E+00  0.00000000E+00  0.00000000E+00
  0.00000000E+00  0.00000000E+00  0.00000000E+00
  0.00000000E+00  0.00000000E+00  0.00000000E+00
  0.00000000E+00  0.00000000E+00  0.00000000E+00
  0.00000000E+00  0.00000000E+00  0.00000000E+00
  0.00000000E+00  0.00000000E+00  0.00000000E+00
  0.00000000E+00  0.00000000E+00  0.00000000E+00
  0.00000000E+00  0.00000000E+00  0.00000000E+00
  0.00000000E+00  0.00000000E+00  0.00000000E+00
  0.00000000E+00  0.00000000E+00  0.00000000E+00
  0.00000000E+00  0.00000000E+00  0.00000000E+00
  0.00000000E+00  0.00000000E+00  0.00000000E+00
  0.00000000E+00  0.00000000E+00  0.00000000E+00
  0.00000000E+00  0.00000000E+00  0.00000000E+00
  0.00000000E+00  0.00000000E+00  0.00000000E+00
  0.00000000E+00  0.00000000E+00  0.00000000E+00
  0.00000000E+00  0.00000000E+00  0.00000000E+00
  0.00000000E+00  0.00000000E+00  0.00000000E+00
  0.00000000E+00  0.00000000E+00  0.00000000E+00
  0.00000000E+00  0.00000000E+00  0.00000000E+00
  0.00000000E+00  0.00000000E+00  0.00000000E+00
  0.00000000E+00  0.00000000E+00  0.00000000E+00
  0.00000000E+00  0.00000000E+00  0.00000000E+00
  0.00000000E+00  0.00000000E+00  0.00000000E+00
  0.00000000E+00  0.00000000E+00  0.00000000E+00
  0.00000000E+00  0.00000000E+00  0.00000000E+00
  0.00000000E+00  0.00000000E+00  0.00000000E+00
  0.00000000E+00  0.00000000E+00  0.00000000E+00
  0.00000000E+00  0.00000000E+00  0.00000000E+00
  0.00000000E+00  0.00000000E+00  0.00000000E+00
