Pt111_danbao.CONTCAR\(0\0\1)            
   1.00000000000000     
     4.8807001114000004    0.0000000000000000    0.0000000000000000
     2.4403500557000002    4.2268102847000000    0.0000000000000000
     0.0000000000000000    0.0000000000000000   24.9022998810000011
   Pt  O
    12 1
Selective dynamics
Direct
  0.0000000000000000  0.0000000000000000  0.0000000000000000   F   F   F
  0.3333300030000004  0.3333300279999989  0.0000000000000000   F   F   F
  0.6666699620000003  0.6666700399999996  0.0000000000000000   F   F   F
  0.6666700050000003  0.0000000000000000  0.0923900029999984   F   F   F
  0.9999999839999987  0.3333300279999989  0.0923900029999984   F   F   F
  0.3333399670000006  0.6666700399999996  0.0923900029999984   F   F   F
  0.3331462192298767 -0.0000059571093348  0.1839963334340998   T   T   T
  0.6668865320551346  0.3331226883013764  0.1839887214457230   T   T   T
  0.0000179947964750  0.6668635969236671  0.1839875434668096   T   T   T
 -0.0000202040868620  0.0000017507474303  0.2769912713692160   T   T   T
  0.3333151280879944  0.3333505766759371  0.2768950739790285   T   T   T
  0.6666676807883356  0.6666547722994374  0.2768953589163018   T   T   T
  0.0000179947964750  0.6668635969236671  0.35                 T   T   T
 
  0.00000000E+00  0.00000000E+00  0.00000000E+00
  0.00000000E+00  0.00000000E+00  0.00000000E+00
  0.00000000E+00  0.00000000E+00  0.00000000E+00
  0.00000000E+00  0.00000000E+00  0.00000000E+00
  0.00000000E+00  0.00000000E+00  0.00000000E+00
  0.00000000E+00  0.00000000E+00  0.00000000E+00
  0.00000000E+00  0.00000000E+00  0.00000000E+00
  0.00000000E+00  0.00000000E+00  0.00000000E+00
  0.00000000E+00  0.00000000E+00  0.00000000E+00
  0.00000000E+00  0.00000000E+00  0.00000000E+00
  0.00000000E+00  0.00000000E+00  0.00000000E+00
  0.00000000E+00  0.00000000E+00  0.00000000E+00
