Cu   Ag
   1.00000000000000     
   7.7123999595999999   0.0000000000000000   0.0000000000000000
  -3.8561999798000000   6.6791342891000003   0.0000000000000000
   0.0000000000000000   0.0000000000000000  24.2971992493000002
Cu   Ag
36  1  
Selective dynamics
Direct
  0.3333305525354080  0.6666695204645950  0.9999811661402800 F F F
  0.3333315515646830  0.9999996753393110  0.9999812719808430 F F F
  0.0000003386606906  0.6666685074353180  0.9999812719808430 F F F
  0.0000010634884262  0.9999989365115740  0.9999813717773450 F F F
  0.3333337411815340  0.3333335808257800  0.9999816025010870 F F F
  0.6666664531742230  0.6666663118184670  0.9999816025010870 F F F
  0.6666655004715950  0.9999985534387010  0.9999816611816290 F F F
  0.0000014405612987  0.3333345195284070  0.9999816611816290 F F F
  0.6666686380171289  0.3333313919828740  0.9999818692555490 F F F
  0.4444423232092660  0.2222230080111490  0.0865400182352687 F F F
  0.7777769979888520  0.5555576737907370  0.0865400182352687 F F F
  0.1111084043854260  0.5555577238153550  0.0865400267559835 F F F
  0.4444422781846460  0.8888916426145740  0.0865400267559835 F F F
  0.4444415944884670  0.5555583925115360  0.0865401540706898 F F F
  0.7777788178657590  0.2222211671342440  0.0865401715436818 F F F
  0.1111094507313270  0.8888906112686710  0.0865404629002100 F F F
  0.1111099140269050  0.2222221875401760  0.0865406647606477 F F F
  0.7777778334598220  0.8888901429730960  0.0865406647606477 F F F
  0.2223034186548180  0.1110286749122620  0.1721627325827980 T T T
  0.8895107061996730  0.7784235625950870  0.1728285115008030 T T T
  0.8891526998962290  0.1112014665933860  0.1727128221378390 T T T
  0.2221725975335570  0.7780878241391920  0.1730560538532800 T T T
  0.5549126913762730  0.4438210452618850  0.1728290221907610 T T T
  0.5552487585419210  0.1111569829861100  0.1730561986409780 T T T
  0.8890901379285620  0.4442437828706570  0.1731780884637790 T T T
  0.2221309871490930  0.4441802155817030  0.1727132668027810 T T T
  0.5554984934410430  0.7778362203385430  0.1729812609191370 T T T
  0.3334017555960430  0.6666238270804210  0.2584801461034160 T T T
  0.3343872081091770  0.9989487689805260  0.2584376401497010 T T T
  0.9998573648786430  0.6665851288528440  0.2587219083785330 T T T
  0.3360111558551680  0.3363248038717330  0.2579395093650090 T T T
  0.6666760334513530  0.6666567315413370  0.2580794349426090 T T T
  0.9970078688213770  0.9973234934590350  0.2579397400887520 T T T
  0.6667133083720240  0.9999299860475190  0.2584807433781220 T T T
  0.9992092282271440  0.3341219816768510  0.2586269424085190 T T T
  0.6667499020833459  0.3334717300954680  0.2587224034198810 T T T
  0.1777770235760980  0.1555550731909820  0.3445460923437620 T T T
