Cu   Ag
   1.00000000000000     
   7.7123999595999999   0.0000000000000000   0.0000000000000000
  -3.8561999798000000   6.6791342891000003   0.0000000000000000
   0.0000000000000000   0.0000000000000000  24.2971992493000002
Cu   Ag
36  1  
Selective dynamics
Direct
  0.3333305525354080  0.6666695204645950  0.9999811661402800 F F F
  0.3333315515646830  0.9999996753393110  0.9999812719808430 F F F
  0.0000003386606906  0.6666685074353180  0.9999812719808430 F F F
  0.0000010634884262  0.9999989365115740  0.9999813717773450 F F F
  0.3333337411815340  0.3333335808257800  0.9999816025010870 F F F
  0.6666664531742230  0.6666663118184670  0.9999816025010870 F F F
  0.6666655004715950  0.9999985534387010  0.9999816611816290 F F F
  0.0000014405612987  0.3333345195284070  0.9999816611816290 F F F
  0.6666686380171289  0.3333313919828740  0.9999818692555490 F F F
  0.4444423232092660  0.2222230080111490  0.0865400182352687 F F F
  0.7777769979888520  0.5555576737907370  0.0865400182352687 F F F
  0.1111084043854260  0.5555577238153550  0.0865400267559835 F F F
  0.4444422781846460  0.8888916426145740  0.0865400267559835 F F F
  0.4444415944884670  0.5555583925115360  0.0865401540706898 F F F
  0.7777788178657590  0.2222211671342440  0.0865401715436818 F F F
  0.1111094507313270  0.8888906112686710  0.0865404629002100 F F F
  0.1111099140269050  0.2222221875401760  0.0865406647606477 F F F
  0.7777778334598220  0.8888901429730960  0.0865406647606477 F F F
  0.2296268637664700  0.1037052298006100  0.1727257146714360 T T T
  0.8966633469754650  0.7714487493571270  0.1731050076677580 T T T
  0.8960102443490570  0.1037150574781900  0.1728689659362250 T T T
  0.2295868382982890  0.7706460585604380  0.1735190833576040 T T T
  0.5618875046141550  0.4366684044859280  0.1731055183577150 T T T
  0.5626905241920001  0.1037427422213850  0.1735192281453020 T T T
  0.8965314155476281  0.4368025052519190  0.1731990675936710 T T T
  0.2296173962631370  0.4373226711344170  0.1728694106011660 T T T
  0.5626405460027040  0.7706941677700671  0.1735265451534860 T T T
  0.3412378756635090  0.6583721662713340  0.2592427942733910 T T T
  0.3416659397493050  0.9916700373418910  0.2591496435113290 T T T
  0.0077575031783397  0.6586200059553490  0.2586555391623830 T T T
  0.3447870050481330  0.3274221451101270  0.2583403988414900 T T T
  0.6747656302853290  0.6585671347103030  0.2584306946953630 T T T
  0.0059105275787346  0.9885476442696510  0.2583406295653670 T T T
  0.6749649691830020  0.9920938659798960  0.2592433915479830 T T T
  0.0062817787142677  0.3270494311916320  0.2584105833284270 T T T
  0.6747150249832710  0.3255715917954230  0.2586560342037390 T T T
  0.1387978545486850  0.1945336706507850  0.3448252265548460 T T T
