Cu   Ag
   1.00000000000000     
   7.7123999595999999   0.0000000000000000   0.0000000000000000
  -3.8561999798000000   6.6791342891000003   0.0000000000000000
   0.0000000000000000   0.0000000000000000  24.2971992493000002
Cu   Ag
36  1  
Selective dynamics
Direct
  0.3333305525354080  0.6666695204645950  0.9999811661402800 F F F
  0.3333315515646830  0.9999996753393110  0.9999812719808430 F F F
  0.0000003386606906  0.6666685074353180  0.9999812719808430 F F F
  0.0000010634884262  0.9999989365115740  0.9999813717773450 F F F
  0.3333337411815340  0.3333335808257800  0.9999816025010870 F F F
  0.6666664531742230  0.6666663118184670  0.9999816025010870 F F F
  0.6666655004715950  0.9999985534387010  0.9999816611816290 F F F
  0.0000014405612987  0.3333345195284070  0.9999816611816290 F F F
  0.6666686380171289  0.3333313919828740  0.9999818692555490 F F F
  0.4444423232092660  0.2222230080111490  0.0865400182352687 F F F
  0.7777769979888520  0.5555576737907370  0.0865400182352687 F F F
  0.1111084043854260  0.5555577238153550  0.0865400267559835 F F F
  0.4444422781846460  0.8888916426145740  0.0865400267559835 F F F
  0.4444415944884670  0.5555583925115360  0.0865401540706898 F F F
  0.7777788178657590  0.2222211671342440  0.0865401715436818 F F F
  0.1111094507313270  0.8888906112686710  0.0865404629002100 F F F
  0.1111099140269050  0.2222221875401760  0.0865406647606477 F F F
  0.7777778334598220  0.8888901429730960  0.0865406647606477 F F F
  0.2223427474437970  0.1109893461232830  0.1722587949969710 T T T
  0.8894690570428661  0.7785381022427200  0.1727985812908910 T T T
  0.8889314779678660  0.1111050749983140  0.1726253315084350 T T T
  0.2222903653455860  0.7780346166501670  0.1731403133189460 T T T
  0.5547981517286400  0.4438626944186910  0.1727990919808490 T T T
  0.5553019660309459  0.1110392151740810  0.1731404581066440 T T T
  0.8891890720187380  0.4441448487804820  0.1730313514046600 T T T
  0.2222273787441650  0.4444014375100660  0.1726257761733760 T T T
  0.5554681409801390  0.7778665727994460  0.1730905067321520 T T T
  0.3333359418671120  0.6665522007730830  0.2586948394426830 T T T
  0.3339935269875480  0.9993424501021551  0.2586666635896930 T T T
  0.9997912386280280  0.6665549406470750  0.2585211212985570 T T T
  0.3364296526644000  0.3359820345236390  0.2579194808456650 T T T
  0.6667301215024890  0.6666026434902010  0.2580931474775310 T T T
  0.9973506381694720  0.9969049966498030  0.2579197115694070 T T T
  0.6667849346793630  0.9999957997764500  0.2586954367173890 T T T
  0.9988179739255120  0.3345132359784840  0.2583778494881200 T T T
  0.6667800902891160  0.3335378563460840  0.2585216163399050 T T T
  0.1555567326923960  0.1777753656746840  0.3444904410187280 T T T
