ONTCAR\(1\0\0)\(2)\(0\0\1)
1.0
        2.8178999424         0.0000000000         0.0000000000
        0.0000000000         2.8178999424         0.0000000000
        0.0000000000         0.0000000000        28.9477005005
   Pt
    7
Selective
Cartesian
     1.408949971         0.000000000        11.955110550  T T T
     1.408949971         0.000000000         7.970170498  T T T
     1.408949971         0.000000000         3.984940290  T T T
     1.408949971         0.000000000         0.000000000  F F F
     0.000000000         1.408949971         1.992470145  F F F
     0.000000000         1.408949971         5.977699757  T T T
     0.000000000         1.408949971         9.962640762  T T T

