Cu   Ag
   1.00000000000000     
   7.7123999595999999   0.0000000000000000   0.0000000000000000
  -3.8561999798000000   6.6791342891000003   0.0000000000000000
   0.0000000000000000   0.0000000000000000  24.2971992493000002
Cu   Ag
36  1  
Selective dynamics
Direct
  0.3333305525354078  0.6666695204645947  0.9999811661402802 F F F
  0.3333315515646836  0.9999996753393106  0.9999812719808432 F F F
  0.0000003386606908  0.6666685074353181  0.9999812719808432 F F F
  0.0000010634884269  0.9999989365115738  0.9999813717773450 F F F
  0.3333337411815335  0.3333335808257800  0.9999816025010874 F F F
  0.6666664531742228  0.6666663118184672  0.9999816025010874 F F F
  0.6666655004715949  0.9999985534387008  0.9999816611816288 F F F
  0.0000014405612991  0.3333345195284067  0.9999816611816288 F F F
  0.6666686380171285  0.3333313919828740  0.9999818692555495 F F F
  0.4444423232092655  0.2222230080111487  0.0865400182352687 F F F
  0.7777769979888518  0.5555576737907373  0.0865400182352687 F F F
  0.1111084043854262  0.5555577238153546  0.0865400267559835 F F F
  0.4444422781846449  0.8888916426145740  0.0865400267559835 F F F
  0.4444415944884668  0.5555583925115357  0.0865401540706898 F F F
  0.7777788178657588  0.2222211671342436  0.0865401715436818 F F F
  0.1111094507313276  0.8888906112686712  0.0865404629002100 F F F
  0.1111099140269049  0.2222221875401757  0.0865406647606477 F F F
  0.7777778334598222  0.8888901429730964  0.0865406647606477 F F F
  0.2656541574900734  0.0676779360770016  0.1740996889020314 T T T
  0.9330512882065416  0.7348565884528248  0.1749364416512226 T T T
  0.9336162955386303  0.0677288858283025  0.1749620443692272 T T T
  0.2648915249415133  0.7342353430019976  0.1745703388942427 T T T
  0.5984796655180775  0.4002804632540308  0.1749369523411805 T T T
  0.5991012401070536  0.0684380555781740  0.1745704836819469 T T T
  0.9322537922903300  0.4010801285108225  0.1755050191298975 T T T
  0.2656035679073002  0.3997166199725377  0.1749624890341549 T T T
  0.5988060957246106  0.7345286180141056  0.1746142791299780 T T T
  0.3814056819347931  0.6181882568359427  0.2598356350342658 T T T
  0.3839648147743634  0.9493711623242532  0.2592743087195863 T T T
  0.0482500884360508  0.6192472145544158  0.2613354992813232 T T T
  0.3823887988744528  0.2880503915235231  0.2606452740140774 T T T
  0.7144022936881493  0.6189304713221859  0.2599813054353264 T T T
  0.0452822811440985  0.9509458504612284  0.2606455047386029 T T T
  0.7151488786278279  0.9519260597078228  0.2598362323082646 T T T
  0.0475133456743979  0.2858178642410485  0.2610651817339472 T T T
  0.7140878163963564  0.2850790065359585  0.2613359943226725 T T T
  0.2772063726671466  0.0561222706942869  0.3470556674858128 T T T
