Nanocluster\(0\0\1)  3 dui chen         
1.0
       30.0000000000         0.0000000000         0.0000000000
        0.0000000000        30.0000000000         0.0000000000
        0.0000000000         0.0000000000        30.0000000000
   Pt
   13
D
   0.15886160  0.13947484  0.02180519
   0.21097687  0.08286970  0.06250206
   0.27627260  0.08595741  0.11650601
   0.23072020  0.16509800  0.04660107
   0.19096903  0.18853162  0.12343879
   0.26964600  0.16634018  0.15018018
   0.12651529  0.14524778  0.09722949
   0.23082190  0.02001103  0.14515530
   0.27336592  0.07587588  0.20130898
   0.17336717  0.08604709  0.13866472
   0.12857198  0.16759317  0.18304210
   0.20124192  0.12806750  0.20378009
   0.30994923  0.15986936  0.07099255


