SYSTEM=h2o
ISTART=0
ICHARGE=2

ISMEAR=0
SIGMA=0.1
ALGO=Fast

ENCUT=500


IBRION=2
EDIFF=1E-5
EDIFFG=1E-4

NELM=200
NSW=100
POTIM=0.1
ISIF=2
LREAL=Auto


