H2O__0_0                                
   1.00000000000000     
    20.0000000000000000    0.0000000000000000    0.0000000000000000
     0.0000000000000000   20.0000000000000000    0.0000000000000000
     0.0000000000000000    0.0000000000000000   20.0000000000000000
   O    H 
     1     2
Direct
  0.5070351940780807 -0.0051430900170474  0.0000000000000000
  0.5324308864215067  0.0362551417074763  0.0000000000000000
  0.4605339195004127  0.0088879483095702  0.0000000000000000
 
  0.00000000E+00  0.00000000E+00  0.00000000E+00
  0.00000000E+00  0.00000000E+00  0.00000000E+00
  0.00000000E+00  0.00000000E+00  0.00000000E+00
