Pd   H                                  
   1.00000000000000     
     4.0394805181502846    0.0000000000000000    0.0000000000000000
    -0.0923531127465265    4.0385963955691446    0.0000000000000000
    -0.0923581181173091   -0.0932262670213582    4.0377124676040896
   Pd   H 
     4     1
Direct
  0.9993070151601495  0.9993070151601516  0.9993070151601499
  0.9848483824985477  0.5033765802835165  0.5033765802835170
  0.5033765802835164  0.9848483824985489  0.5033765802835170
  0.5033765802835170  0.5033765802835164  0.9848483824985486
  0.3513250619722387  0.3513250619722386  0.3513250619722387
 
             NaN             NaN             NaN
             NaN             NaN             NaN
             NaN             NaN             NaN
             NaN             NaN             NaN
             NaN             NaN             NaN
