4x4CONCAR                               
   1.00000000000000     
    10.2832002639999995    0.0000000000000000    0.0000000000000000
    -5.1416001319999998    8.9055126607999995    0.0000000000000000
     0.0000000000000000    0.0000000000000000   18.0000000000000000
   Cu H
    64 1
Selective dynamics
Direct
  0.0000000000000000  0.0000000000000000  0.0000000000000000   F   F   F
  0.2500000000000000  0.0000000000000000  0.0000000000000000   F   F   F
  0.5000000000000000  0.0000000000000000  0.0000000000000000   F   F   F
  0.7500000229999984  0.0000000000000000  0.0000000000000000   F   F   F
  0.0000000020000002  0.2500000040000003  0.0000000000000000   F   F   F
  0.2500000020000002  0.2500000040000003  0.0000000000000000   F   F   F
  0.5000000140000012  0.2500000040000003  0.0000000000000000   F   F   F
  0.7500000369999995  0.2500000040000003  0.0000000000000000   F   F   F
  0.0000000040000003  0.5000000080000007  0.0000000000000000   F   F   F
  0.2500000040000003  0.5000000080000007  0.0000000000000000   F   F   F
  0.5000000040000003  0.5000000080000007  0.0000000000000000   F   F   F
  0.7500000510000007  0.5000000080000007  0.0000000000000000   F   F   F
  0.9999999810000020  0.7499999859999988  0.0000000000000000   F   F   F
  0.2499999810000020  0.7499999859999988  0.0000000000000000   F   F   F
  0.4999999810000020  0.7499999859999988  0.0000000000000000   F   F   F
  0.7500000040000003  0.7499999859999988  0.0000000000000000   F   F   F
  0.0833300030000004  0.1666699980000033  0.1166099969999976   F   F   F
  0.3333299909999994  0.1666699980000033  0.1166099969999976   F   F   F
  0.5833299909999994  0.1666699980000033  0.1166099969999976   F   F   F
  0.8333299680000010  0.1666699980000033  0.1166099969999976   F   F   F
  0.0833300050000005  0.4166700019999965  0.1166099969999976   F   F   F
  0.3333300050000005  0.4166700019999965  0.1166099969999976   F   F   F
  0.5833299820000022  0.4166700019999965  0.1166099969999976   F   F   F
  0.8333299820000022  0.4166700019999965  0.1166099969999976   F   F   F
  0.0833300090000009  0.6666700330000026  0.1166099969999976   F   F   F
  0.3333300090000009  0.6666700330000026  0.1166099969999976   F   F   F
  0.5833299849999989  0.6666700330000026  0.1166099969999976   F   F   F
  0.8333299620000005  0.6666700330000026  0.1166099969999976   F   F   F
  0.0833300359999996  0.9166700640000016  0.1166099969999976   F   F   F
  0.3333300359999996  0.9166700640000016  0.1166099969999976   F   F   F
  0.5833300119999976  0.9166700640000016  0.1166099969999976   F   F   F
  0.8333299889999992  0.9166700640000016  0.1166099969999976   F   F   F
  0.1666453232287873  0.0833546717712158  0.2320645665308954   T   T   T
  0.4166453002287818  0.0833546717712158  0.2320645665308954   T   T   T
  0.6666453232287871  0.0833546717712158  0.2320645665308954   T   T   T
  0.9166453002287817  0.0833546717712158  0.2320645665308954   T   T   T
  0.1666453292287807  0.3333546827712132  0.2320645665308954   T   T   T
  0.4166453172287868  0.3333546827712132  0.2320645665308954   T   T   T
  0.6666453402287850  0.3333546827712132  0.2320645665308954   T   T   T
  0.9166453172287866  0.3333546827712132  0.2320645665308954   T   T   T
  0.1666453152287866  0.5833546337712129  0.2320645665308954   T   T   T
  0.4166453042287822  0.5833546337712129  0.2320645665308954   T   T   T
  0.6666453272287874  0.5833546337712129  0.2320645665308954   T   T   T
  0.9166453042287820  0.5833546337712129  0.2320645665308954   T   T   T
  0.1666453542287863  0.8333546647712190  0.2320645665308954   T   T   T
  0.4166453312287808  0.8333546647712190  0.2320645665308954   T   T   T
  0.6666453542287861  0.8333546647712190  0.2320645665308954   T   T   T
  0.9166453312287807  0.8333546647712190  0.2320645665308954   T   T   T
  0.0000084135020851 -0.0000084135020851  0.3470189068604074   T   T   T
  0.2500084135020851 -0.0000084135020851  0.3470189068604074   T   T   T
  0.5000084135020852 -0.0000084135020851  0.3470189068604074   T   T   T
  0.7500084365020836 -0.0000084135020851  0.3470189068604074   T   T   T
  0.0000084155020852  0.2499915904979153  0.3470189068604074   T   T   T
  0.2500084155020853  0.2499915904979153  0.3470189068604074   T   T   T
  0.5000084275020864  0.2499915904979153  0.3470189068604074   T   T   T
  0.7500084505020848  0.2499915904979153  0.3470189068604074   T   T   T
  0.0000084175020854  0.4999915944979155  0.3470189068604074   T   T   T
  0.2500084175020855  0.4999915944979155  0.3470189068604074   T   T   T
  0.5000084175020856  0.4999915944979155  0.3470189068604074   T   T   T
  0.7500084645020859  0.4999915944979155  0.3470189068604074   T   T   T
  0.0000083945020870  0.7499915724979136  0.3470189068604074   T   T   T
  0.2500083945020871  0.7499915724979136  0.3470189068604074   T   T   T
  0.5000083945020872  0.7499915724979136  0.3470189068604074   T   T   T
  0.7500084175020856  0.7499915724979136  0.3470189068604074   T   T   T
  0.8333299889999992  0.9166700640000016 0.450 T T T

  0.00000000E+00  0.00000000E+00  0.00000000E+00
  0.00000000E+00  0.00000000E+00  0.00000000E+00
  0.00000000E+00  0.00000000E+00  0.00000000E+00
  0.00000000E+00  0.00000000E+00  0.00000000E+00
  0.00000000E+00  0.00000000E+00  0.00000000E+00
  0.00000000E+00  0.00000000E+00  0.00000000E+00
  0.00000000E+00  0.00000000E+00  0.00000000E+00
  0.00000000E+00  0.00000000E+00  0.00000000E+00
  0.00000000E+00  0.00000000E+00  0.00000000E+00
  0.00000000E+00  0.00000000E+00  0.00000000E+00
  0.00000000E+00  0.00000000E+00  0.00000000E+00
  0.00000000E+00  0.00000000E+00  0.00000000E+00
  0.00000000E+00  0.00000000E+00  0.00000000E+00
  0.00000000E+00  0.00000000E+00  0.00000000E+00
  0.00000000E+00  0.00000000E+00  0.00000000E+00
  0.00000000E+00  0.00000000E+00  0.00000000E+00
  0.00000000E+00  0.00000000E+00  0.00000000E+00
  0.00000000E+00  0.00000000E+00  0.00000000E+00
  0.00000000E+00  0.00000000E+00  0.00000000E+00
  0.00000000E+00  0.00000000E+00  0.00000000E+00
  0.00000000E+00  0.00000000E+00  0.00000000E+00
  0.00000000E+00  0.00000000E+00  0.00000000E+00
  0.00000000E+00  0.00000000E+00  0.00000000E+00
  0.00000000E+00  0.00000000E+00  0.00000000E+00
  0.00000000E+00  0.00000000E+00  0.00000000E+00
  0.00000000E+00  0.00000000E+00  0.00000000E+00
  0.00000000E+00  0.00000000E+00  0.00000000E+00
  0.00000000E+00  0.00000000E+00  0.00000000E+00
  0.00000000E+00  0.00000000E+00  0.00000000E+00
  0.00000000E+00  0.00000000E+00  0.00000000E+00
  0.00000000E+00  0.00000000E+00  0.00000000E+00
  0.00000000E+00  0.00000000E+00  0.00000000E+00
  0.00000000E+00  0.00000000E+00  0.00000000E+00
  0.00000000E+00  0.00000000E+00  0.00000000E+00
  0.00000000E+00  0.00000000E+00  0.00000000E+00
  0.00000000E+00  0.00000000E+00  0.00000000E+00
  0.00000000E+00  0.00000000E+00  0.00000000E+00
  0.00000000E+00  0.00000000E+00  0.00000000E+00
  0.00000000E+00  0.00000000E+00  0.00000000E+00
  0.00000000E+00  0.00000000E+00  0.00000000E+00
  0.00000000E+00  0.00000000E+00  0.00000000E+00
  0.00000000E+00  0.00000000E+00  0.00000000E+00
  0.00000000E+00  0.00000000E+00  0.00000000E+00
  0.00000000E+00  0.00000000E+00  0.00000000E+00
  0.00000000E+00  0.00000000E+00  0.00000000E+00
  0.00000000E+00  0.00000000E+00  0.00000000E+00
  0.00000000E+00  0.00000000E+00  0.00000000E+00
  0.00000000E+00  0.00000000E+00  0.00000000E+00
  0.00000000E+00  0.00000000E+00  0.00000000E+00
  0.00000000E+00  0.00000000E+00  0.00000000E+00
  0.00000000E+00  0.00000000E+00  0.00000000E+00
  0.00000000E+00  0.00000000E+00  0.00000000E+00
  0.00000000E+00  0.00000000E+00  0.00000000E+00
  0.00000000E+00  0.00000000E+00  0.00000000E+00
  0.00000000E+00  0.00000000E+00  0.00000000E+00
  0.00000000E+00  0.00000000E+00  0.00000000E+00
  0.00000000E+00  0.00000000E+00  0.00000000E+00
  0.00000000E+00  0.00000000E+00  0.00000000E+00
  0.00000000E+00  0.00000000E+00  0.00000000E+00
  0.00000000E+00  0.00000000E+00  0.00000000E+00
  0.00000000E+00  0.00000000E+00  0.00000000E+00
  0.00000000E+00  0.00000000E+00  0.00000000E+00
  0.00000000E+00  0.00000000E+00  0.00000000E+00
  0.00000000E+00  0.00000000E+00  0.00000000E+00
