siCONCAR ini  0 0 0 fin 0.125 0.125 0.125
1.0
       10.9355001450         0.0000000000         0.0000000000
        0.0000000000        10.9355001450         0.0000000000
        0.0000000000         0.0000000000        10.9355001450
   Si
   63
Direct
     0.125000000         0.125000000         0.125000000
     0.000000000         0.250000000         0.250000000
     0.250000000         0.250000000         0.000000000
     0.250000000         0.000000000         0.250000000
     0.374999989         0.125000000         0.374999989
     0.125000000         0.374999989         0.374999989
     0.374999989         0.374999989         0.125000000
     0.500000000         0.000000000         0.000000000
     0.500000000         0.250000000         0.250000000
     0.749999978         0.250000000         0.000000000
     0.749999978         0.000000000         0.250000000
     0.874999989         0.125000000         0.374999989
     0.625000011         0.125000000         0.125000000
     0.625000011         0.374999989         0.374999989
     0.874999989         0.374999989         0.125000000
     0.000000000         0.500000000         0.000000000
     0.000000000         0.749999978         0.250000000
     0.250000000         0.749999978         0.000000000
     0.250000000         0.500000000         0.250000000
     0.374999989         0.625000011         0.374999989
     0.125000000         0.625000011         0.125000000
     0.125000000         0.874999989         0.374999989
     0.374999989         0.874999989         0.125000000
     0.500000000         0.500000000         0.000000000
     0.500000000         0.749999978         0.250000000
     0.749999978         0.749999978         0.000000000
     0.749999978         0.500000000         0.250000000
     0.874999989         0.625000011         0.374999989
     0.625000011         0.625000011         0.125000000
     0.625000011         0.874999989         0.374999989
     0.874999989         0.874999989         0.125000000
     0.000000000         0.000000000         0.500000000
     0.000000000         0.250000000         0.749999978
     0.250000000         0.250000000         0.500000000
     0.250000000         0.000000000         0.749999978
     0.374999989         0.125000000         0.874999989
     0.125000000         0.125000000         0.625000011
     0.125000000         0.374999989         0.874999989
     0.374999989         0.374999989         0.625000011
     0.500000000         0.000000000         0.500000000
     0.500000000         0.250000000         0.749999978
     0.749999978         0.250000000         0.500000000
     0.749999978         0.000000000         0.749999978
     0.874999989         0.125000000         0.874999989
     0.625000011         0.125000000         0.625000011
     0.625000011         0.374999989         0.874999989
     0.874999989         0.374999989         0.625000011
     0.000000000         0.500000000         0.500000000
     0.000000000         0.749999978         0.749999978
     0.250000000         0.749999978         0.500000000
     0.250000000         0.500000000         0.749999978
     0.374999989         0.625000011         0.874999989
     0.125000000         0.625000011         0.625000011
     0.125000000         0.874999989         0.874999989
     0.374999989         0.874999989         0.625000011
     0.500000000         0.500000000         0.500000000
     0.500000000         0.749999978         0.749999978
     0.749999978         0.749999978         0.500000000
     0.749999978         0.500000000         0.749999978
     0.874999989         0.625000011         0.874999989
     0.625000011         0.625000011         0.625000011
     0.625000011         0.874999989         0.874999989
     0.874999989         0.874999989         0.625000011

