Pd
   1.00000000000000     
   7.9120001792999997   0.0000000000000000   0.0000000000000000
   0.0000000000000000   7.9120001792999997   0.0000000000000000
   0.0000000000000000   0.0000000000000000  23.9340000153000005
Pd
33  
Selective dynamics
Direct
  0.0000000000000000  0.2500000000000000  0.0000000000000000 F F F
  0.2500000000000000  0.0000000000000000  0.0000000000000000 F F F
  0.5000000000000000  0.2500000000000000  0.0000000000000000 F F F
  0.7500000000000000  0.0000000000000000  0.0000000000000000 F F F
  0.0000000000000000  0.7500000000000000  0.0000000000000000 F F F
  0.2500000000000000  0.5000000000000000  0.0000000000000000 F F F
  0.5000000000000000  0.7500000000000000  0.0000000000000000 F F F
  0.7500000000000000  0.5000000000000000  0.0000000000000000 F F F
  0.0000000000000000  0.0000000000000000  0.0826399999999978 F F F
  0.2500000000000000  0.2500000000000000  0.0826399999999978 F F F
  0.5000000000000000  0.0000000000000000  0.0826399999999978 F F F
  0.7500000000000000  0.2500000000000000  0.0826399999999978 F F F
  0.0000000000000000  0.5000000000000000  0.0826399999999978 F F F
  0.2500000000000000  0.7500000000000000  0.0826399999999978 F F F
  0.5000000000000000  0.5000000000000000  0.0826399999999978 F F F
  0.7500000000000000  0.7500000000000000  0.0826399999999978 F F F
 -0.0000000000000000  0.2500000000000000  0.1639660625701168 T T T
  0.2493702033426951  0.0006297966573048  0.1643896828860887 T T T
  0.5000000000000000  0.2500000000000000  0.1648120650885648 T T T
  0.7506297966573050  0.0006297966573048  0.1643896828860887 T T T
 -0.0000000000000000  0.7500000000000000  0.1648120650885648 T T T
  0.2493702033426951  0.4993702033426951  0.1643896828860887 T T T
  0.5000000000000000  0.7500000000000000  0.1658156900675630 T T T
  0.7506297966573050  0.4993702033426951  0.1643896828860887 T T T
 -0.0000000000000000  0.0030389565455113  0.2463469327916989 T T T
  0.2469610434544886  0.2500000000000000  0.2463469327916989 T T T
  0.5000000000000000  0.0086232328258708  0.2460052290526772 T T T
  0.7530389565455115  0.2500000000000000  0.2463469327916989 T T T
 -0.0000000000000000  0.4969610434544885  0.2463469327916989 T T T
  0.2413767671741293  0.7500000000000000  0.2460052290526772 T T T
  0.7586232328258706  0.7500000000000000  0.2460052290526772 T T T
  0.5000000000000000  0.7500000000000000  0.3167005865185680 T T T
  0.5000000000000000  0.4913767671741295  0.2460052290526772 T T T
