2
1.0
        3.6350998878         0.0000000000         0.0000000000
        0.0000000000         3.6350998878         0.0000000000
        0.0000000000         0.0000000000        23.4526004791
   Cu
    8
S
Direct
0.0000000000	0.5000000000	0.0000000000	F	F	F
0.5000000000	0.0000000000	0.0000000000	F	F	F
0.0000000000	0.0000000000	0.0775000000	F	F	F
0.5000000000	0.5000000000	0.0775000000	F	F	F
0.0000000000	0.5000000000	0.1549999990	T	T	T
0.5000000000	0.0000000000	0.1549999990	T	T	T
0.0000000000	0.0000000000	0.2324900010	T	T	T
0.5000000000	0.5000000000	0.2324900010	T	T	T

