Sc1 Al1
3.372
1.000000 0.000000 0.000000
0.000000 1.000000 0.000000
0.000000 0.000000 1.000000
Sc1 Al
1 1
direct
0.000000 0.000000 0.000000 Sc
0.500000 0.500000 0.500000 Al
