Pd
   1.00000000000000     
   7.9120001792999997   0.0000000000000000   0.0000000000000000
   0.0000000000000000   7.9120001792999997   0.0000000000000000
   0.0000000000000000   0.0000000000000000  23.9340000153000005
Pd
33  
Selective dynamics
Direct
  0.0000000000000000  0.2500000000000000  0.0000000000000000 F F F
  0.2500000000000000  0.0000000000000000  0.0000000000000000 F F F
  0.5000000000000000  0.2500000000000000  0.0000000000000000 F F F
  0.7500000000000000  0.0000000000000000  0.0000000000000000 F F F
  0.0000000000000000  0.7500000000000000  0.0000000000000000 F F F
  0.2500000000000000  0.5000000000000000  0.0000000000000000 F F F
  0.5000000000000000  0.7500000000000000  0.0000000000000000 F F F
  0.7500000000000000  0.5000000000000000  0.0000000000000000 F F F
  0.0000000000000000  0.0000000000000000  0.0826399999999978 F F F
  0.2500000000000000  0.2500000000000000  0.0826399999999978 F F F
  0.5000000000000000  0.0000000000000000  0.0826399999999978 F F F
  0.7500000000000000  0.2500000000000000  0.0826399999999978 F F F
  0.0000000000000000  0.5000000000000000  0.0826399999999978 F F F
  0.2500000000000000  0.7500000000000000  0.0826399999999978 F F F
  0.5000000000000000  0.5000000000000000  0.0826399999999978 F F F
  0.7500000000000000  0.7500000000000000  0.0826399999999978 F F F
  0.0000000000000000  0.2500000000000000  0.1645126276920270 T T T
  0.2494396111039310  0.9998594755421381  0.1643682503672390 T T T
  0.5000000000000000  0.2500000000000000  0.1654382154547140 T T T
  0.7505603888960480  0.9998594755421381  0.1643682503672390 T T T
  0.0000000000000000  0.7500000000000000  0.1641786585957450 T T T
  0.2494396111039310  0.5001405244578619  0.1643682503672390 T T T
  0.5000000000000000  0.7500000000000000  0.1651291701911790 T T T
  0.7505603888960480  0.5001405244578619  0.1643682503672390 T T T
  0.0000000000000000  0.9990572680892460  0.2462321340623670 T T T
  0.2433747980307710  0.2500000000000000  0.2460830041456890 T T T
  0.5000000000000000  0.9972621944878880  0.2459691028993450 T T T
  0.7566252019692290  0.2500000000000000  0.2460830041456890 T T T
  0.0000000000000000  0.5009427319107540  0.2462321340623670 T T T
  0.2451698716321220  0.7500000000000000  0.2461182328160230 T T T
  0.7548301283678780  0.7500000000000000  0.2461182328160230 T T T
  0.5000000000000000  0.5889455497873830  0.2695342220546450 T T T
  0.5000000000000000  0.3304589223913790  0.2932484949376360 T T T
