Hf2-HCP
3.198
1.000000 0.000000 0.000000
0.500000 0.866025 0.000000
0.000000 0.000000 1.58
Hf
2
direct
0.000000 0.000000 0.000000 Hf
0.333333 0.333333 0.333333 Hf
