SYSTEM=NH3
ISATART=0
ICHARGE=2
ENCUT=500

ISMEAR=0
SIGMA=0.01
ISPIN=2

IBRION=5
EDIFF=1E-6
#EDIFFG=1E-4
NELM=200
NSW=1
POTIM=0.02
NFREE=2
ISIF=2
