POSCAR.mp-29145_H3N                     
   1.00000000000000     
    20.4654006957999997    0.0000000000000000    0.0000000000000000
     0.0000000000000000   20.4654006957999997    0.0000000000000000
     0.0000000000000000    0.0000000000000000   20.4654006957999997
   H    N 
     3     1
Direct
  0.2757399678621880  0.3401895203607490  0.3175823469319390
  0.3175823469319390  0.2757399678621880  0.3401895203607490
  0.3401895203607490  0.3175823469319390  0.2757399678621880
  0.3004181934998994  0.3004181934998994  0.3004181934998994
 
  0.00000000E+00  0.00000000E+00  0.00000000E+00
  0.00000000E+00  0.00000000E+00  0.00000000E+00
  0.00000000E+00  0.00000000E+00  0.00000000E+00
  0.00000000E+00  0.00000000E+00  0.00000000E+00
