Cu   Ag
   1.00000000000000     
   7.7123999595999999   0.0000000000000000   0.0000000000000000
  -3.8561999798000000   6.6791342891000003   0.0000000000000000
   0.0000000000000000   0.0000000000000000  24.2971992493000002
Cu   Ag
36  1  
Selective dynamics
Direct
  0.3333305525354080  0.6666695204645950  0.9999811661402800 F F F
  0.3333315515646830  0.9999996753393110  0.9999812719808430 F F F
  0.0000003386606906  0.6666685074353180  0.9999812719808430 F F F
  0.0000010634884262  0.9999989365115740  0.9999813717773450 F F F
  0.3333337411815340  0.3333335808257800  0.9999816025010870 F F F
  0.6666664531742230  0.6666663118184670  0.9999816025010870 F F F
  0.6666655004715950  0.9999985534387010  0.9999816611816290 F F F
  0.0000014405612987  0.3333345195284070  0.9999816611816290 F F F
  0.6666686380171289  0.3333313919828740  0.9999818692555490 F F F
  0.4444423232092660  0.2222230080111490  0.0865400182352687 F F F
  0.7777769979888520  0.5555576737907370  0.0865400182352687 F F F
  0.1111084043854260  0.5555577238153550  0.0865400267559835 F F F
  0.4444422781846460  0.8888916426145740  0.0865400267559835 F F F
  0.4444415944884670  0.5555583925115360  0.0865401540706898 F F F
  0.7777788178657590  0.2222211671342440  0.0865401715436818 F F F
  0.1111094507313270  0.8888906112686710  0.0865404629002100 F F F
  0.1111099140269050  0.2222221875401760  0.0865406647606477 F F F
  0.7777778334598220  0.8888901429730960  0.0865406647606477 F F F
  0.2222640898658380  0.1110680037012410  0.1720666701686260 T T T
  0.8895523553564790  0.7783090229474540  0.1728584417107160 T T T
  0.8893739218245930  0.1112978581884580  0.1728003127672440 T T T
  0.2220548297215290  0.7781410316282160  0.1729717943876140 T T T
  0.5550272310239071  0.4437793961050790  0.1728589524006740 T T T
  0.5551955510528970  0.1112747507981380  0.1729719391753120 T T T
  0.8889912038383870  0.4443427169608330  0.1733248255228970 T T T
  0.2220345955540210  0.4439589936533390  0.1728007574321850 T T T
  0.5555288459019470  0.7778058678776389  0.1728720151061220 T T T
  0.3334675693249740  0.6666954533877600  0.2582654527641490 T T T
  0.3347808892308070  0.9985550878588970  0.2582086167097090 T T T
  0.9999234911292590  0.6666153170586140  0.2589226954585090 T T T
  0.3355926590459360  0.3366675732198270  0.2579595378843540 T T T
  0.6666219454002160  0.6667108195924740  0.2580657224076860 T T T
  0.9966650994732830  0.9977419902682670  0.2579597686080960 T T T
  0.6666416820646860  0.9998641723185880  0.2582660500388560 T T T
  0.9996004825287770  0.3337307273752190  0.2588760353289170 T T T
  0.6667197138775760  0.3334056038448520  0.2589231904998570 T T T
  0.1999973144598000  0.1333347807072800  0.3446017436687970 T T T
