Co
1.0
        2.5069999695         0.0000000000         0.0000000000
       -1.2534999847         2.1711256609         0.0000000000
        0.0000000000         0.0000000000         4.0689997673
   Co
    2
Direct
     0.333333341         0.666666682         0.250000000
     0.666666609         0.333333313         0.749999971

