H2O__0_0
1.0
       20.0000000000         0.0000000000         0.0000000000
        0.0000000000        20.0000000000         0.0000000000
        0.0000000000         0.0000000000        20.0000000000
    O    H
    1    2
Cartesian
    10.000000000         0.000000000         0.000000000
    11.000000000         h         0.000000000
     9.000000000         0.000000000         0.000000000
