Co                                      
   1.00000000000000     
     2.4904864098223278   -0.0000000000003803   -0.0000000000000000
    -1.2452432048618227    2.1568244987118983   -0.0000000000000000
     0.0000000000000000   -0.0000000000000000    4.0355067983585426
   Co
     2
Direct
  0.3333333409999995  0.6666666819999989  0.2500000000000000
  0.6666666090000035  0.3333333129999971  0.7499999710000012
 
  0.00000000E+00  0.00000000E+00  0.00000000E+00
  0.00000000E+00  0.00000000E+00  0.00000000E+00
