SYSTEM=N2
ISATART=0
ICHARGE=2
ENCUT=500

ISMEAR=0
SIGMA=0.01
ISPIN=2
MAGMOM=1 -1

IBRION=2
EDIFF=1E-5
EDIFFG=1E-4
NELM=200
NSW=100
POTIM=0.02
ISIF=2
