N2
20
1.0 0.0 0.0
0.0 1.0 0.0
0.0 0.0 1.0
N
2
Car
10  10   10
11.0977 10 10

