Cu_Pd_BCC                               
   1.00000000000000     
     3.3788309432285759   -0.0000000000000000   -0.0000000000000000
     0.0000000000000000    3.3788309432285759   -0.0000000000000000
    -0.0000000000000000   -0.0000000000000000    3.3788309432285764
   Pd   Cu
     1     1
Direct
  0.0000000000000000  0.0000000000000000  0.0000000000000000
  0.5000000000000000  0.5000000000000000  0.5000000000000000
 
  0.00000000E+00  0.00000000E+00  0.00000000E+00
  0.00000000E+00  0.00000000E+00  0.00000000E+00
