HH
1
15.0 0.0 0.0
0.0 15.0 0.0
0.0 0.0 15.0
H
2
S
C
0.0 0.0 0.0 F F F
1.0 0.0 0.0 T F F
