4x4CONCAR                               
   1.00000000000000     
    10.2832002639999995    0.0000000000000000    0.0000000000000000
    -5.1416001319999998    8.9055126607999995    0.0000000000000000
     0.0000000000000000    0.0000000000000000   18.0000000000000000
   Cu   H 
    64     1
Selective dynamics
Direct
  0.0000000000000000  0.0000000000000000  0.0000000000000000   F   F   F
  0.2500000000000000  0.0000000000000000  0.0000000000000000   F   F   F
  0.5000000000000000  0.0000000000000000  0.0000000000000000   F   F   F
  0.7500000229999984  0.0000000000000000  0.0000000000000000   F   F   F
  0.0000000020000002  0.2500000040000003  0.0000000000000000   F   F   F
  0.2500000020000002  0.2500000040000003  0.0000000000000000   F   F   F
  0.5000000140000012  0.2500000040000003  0.0000000000000000   F   F   F
  0.7500000369999995  0.2500000040000003  0.0000000000000000   F   F   F
  0.0000000040000003  0.5000000080000007  0.0000000000000000   F   F   F
  0.2500000040000003  0.5000000080000007  0.0000000000000000   F   F   F
  0.5000000040000003  0.5000000080000007  0.0000000000000000   F   F   F
  0.7500000510000007  0.5000000080000007  0.0000000000000000   F   F   F
  0.9999999810000020  0.7499999859999988  0.0000000000000000   F   F   F
  0.2499999810000020  0.7499999859999988  0.0000000000000000   F   F   F
  0.4999999810000020  0.7499999859999988  0.0000000000000000   F   F   F
  0.7500000040000003  0.7499999859999988  0.0000000000000000   F   F   F
  0.0833300030000004  0.1666699980000033  0.1166099969999976   F   F   F
  0.3333299909999994  0.1666699980000033  0.1166099969999976   F   F   F
  0.5833299909999994  0.1666699980000033  0.1166099969999976   F   F   F
  0.8333299680000010  0.1666699980000033  0.1166099969999976   F   F   F
  0.0833300050000005  0.4166700019999965  0.1166099969999976   F   F   F
  0.3333300050000005  0.4166700019999965  0.1166099969999976   F   F   F
  0.5833299820000022  0.4166700019999965  0.1166099969999976   F   F   F
  0.8333299820000022  0.4166700019999965  0.1166099969999976   F   F   F
  0.0833300090000009  0.6666700330000026  0.1166099969999976   F   F   F
  0.3333300090000009  0.6666700330000026  0.1166099969999976   F   F   F
  0.5833299849999989  0.6666700330000026  0.1166099969999976   F   F   F
  0.8333299620000005  0.6666700330000026  0.1166099969999976   F   F   F
  0.0833300359999996  0.9166700640000016  0.1166099969999976   F   F   F
  0.3333300359999996  0.9166700640000016  0.1166099969999976   F   F   F
  0.5833300119999976  0.9166700640000016  0.1166099969999976   F   F   F
  0.8333299889999992  0.9166700640000016  0.1166099969999976   F   F   F
  0.1653106467926141  0.0823541418399669  0.2327960256934286   F   F   F
  0.4165218212713335  0.0832621714616571  0.2318921863450624   F   F   F
  0.6667374454238203  0.0832637124167740  0.2318920287199382   F   F   F
  0.9170397817335743  0.0823539438098768  0.2327955576340706   F   F   F
  0.1666440612495247  0.3332883464437244  0.2321426941736203   F   F   F
  0.4166603720929058  0.3333381981304478  0.2317879828291959   F   F   F
  0.6667371268380849  0.3334770981753307  0.2318915082695398   F   F   F
  0.9166734775104295  0.3333379769080982  0.2317867184592582   F   F   F
  0.1666416023318744  0.5833599999119199  0.2321417628237540   F   F   F
  0.4167109252959903  0.5833579872573301  0.2321417467298532   F   F   F
  0.6676449889608473  0.5846887734910455  0.2327962561424653   F   F   F
  0.9170355677980851  0.5846875371832346  0.2327956879809282   F   F   F
  0.1653082432663571  0.8329612471966860  0.2327945379406759   F   F   F
  0.4166609477197259  0.8333268241119007  0.2317863854631412   F   F   F
  0.6676454894108821  0.8329596333126480  0.2327959758803979   F   F   F
  0.9166643571919565  0.8333341072491798  0.2305523617112775   F   F   F
 -0.0003344256247220 -0.0006648240459415  0.3501338952307460   F   F   F
  0.2527277518384311  0.0013635779318837  0.3468875386707375   F   F   F
  0.4999009249022469 -0.0001889208247565  0.3468795009697971   F   F   F
  0.7486363011309506  0.0013649917093535  0.3468891062277133   F   F   F
  0.0001239836884025  0.2498758596824965  0.3468564745135684   F   F   F
  0.2497544999867721  0.2498857602386420  0.3468571680640725   F   F   F
  0.4999047147294716  0.2500982217209491  0.3468796951247597   F   F   F
  0.7501811256080858  0.2500941164399225  0.3468843698012136   F   F   F
  0.0001172060710004  0.5002450076498504  0.3468548214264160   F   F   F
  0.2499942738136611  0.5000062379460640  0.3469164351027903   F   F   F
  0.5001102457815645  0.5002456357416510  0.3468562090965431   F   F   F
  0.7486343287687215  0.4972698291623390  0.3468882600882622   F   F   F
 -0.0003396559731065  0.7503310447943270  0.3501348540318801   F   F   F
  0.2497522824609863  0.7498832378218717  0.3468551704849273   F   F   F
  0.5001211451703855  0.7498776499297214  0.3468568782853766   F   F   F
  0.7506593608769440  0.7503308829363519  0.3501350000489361   F   F   F
  0.9166636260321662  0.8333327545779370  0.4014711169816200   T   T   T
 
  0.00000000E+00  0.00000000E+00  0.00000000E+00
  0.00000000E+00  0.00000000E+00  0.00000000E+00
  0.00000000E+00  0.00000000E+00  0.00000000E+00
  0.00000000E+00  0.00000000E+00  0.00000000E+00
  0.00000000E+00  0.00000000E+00  0.00000000E+00
  0.00000000E+00  0.00000000E+00  0.00000000E+00
  0.00000000E+00  0.00000000E+00  0.00000000E+00
  0.00000000E+00  0.00000000E+00  0.00000000E+00
  0.00000000E+00  0.00000000E+00  0.00000000E+00
  0.00000000E+00  0.00000000E+00  0.00000000E+00
  0.00000000E+00  0.00000000E+00  0.00000000E+00
  0.00000000E+00  0.00000000E+00  0.00000000E+00
  0.00000000E+00  0.00000000E+00  0.00000000E+00
  0.00000000E+00  0.00000000E+00  0.00000000E+00
  0.00000000E+00  0.00000000E+00  0.00000000E+00
  0.00000000E+00  0.00000000E+00  0.00000000E+00
  0.00000000E+00  0.00000000E+00  0.00000000E+00
  0.00000000E+00  0.00000000E+00  0.00000000E+00
  0.00000000E+00  0.00000000E+00  0.00000000E+00
  0.00000000E+00  0.00000000E+00  0.00000000E+00
  0.00000000E+00  0.00000000E+00  0.00000000E+00
  0.00000000E+00  0.00000000E+00  0.00000000E+00
  0.00000000E+00  0.00000000E+00  0.00000000E+00
  0.00000000E+00  0.00000000E+00  0.00000000E+00
  0.00000000E+00  0.00000000E+00  0.00000000E+00
  0.00000000E+00  0.00000000E+00  0.00000000E+00
  0.00000000E+00  0.00000000E+00  0.00000000E+00
  0.00000000E+00  0.00000000E+00  0.00000000E+00
  0.00000000E+00  0.00000000E+00  0.00000000E+00
  0.00000000E+00  0.00000000E+00  0.00000000E+00
  0.00000000E+00  0.00000000E+00  0.00000000E+00
  0.00000000E+00  0.00000000E+00  0.00000000E+00
  0.00000000E+00  0.00000000E+00  0.00000000E+00
  0.00000000E+00  0.00000000E+00  0.00000000E+00
  0.00000000E+00  0.00000000E+00  0.00000000E+00
  0.00000000E+00  0.00000000E+00  0.00000000E+00
  0.00000000E+00  0.00000000E+00  0.00000000E+00
  0.00000000E+00  0.00000000E+00  0.00000000E+00
  0.00000000E+00  0.00000000E+00  0.00000000E+00
  0.00000000E+00  0.00000000E+00  0.00000000E+00
  0.00000000E+00  0.00000000E+00  0.00000000E+00
  0.00000000E+00  0.00000000E+00  0.00000000E+00
  0.00000000E+00  0.00000000E+00  0.00000000E+00
  0.00000000E+00  0.00000000E+00  0.00000000E+00
  0.00000000E+00  0.00000000E+00  0.00000000E+00
  0.00000000E+00  0.00000000E+00  0.00000000E+00
  0.00000000E+00  0.00000000E+00  0.00000000E+00
  0.00000000E+00  0.00000000E+00  0.00000000E+00
  0.00000000E+00  0.00000000E+00  0.00000000E+00
  0.00000000E+00  0.00000000E+00  0.00000000E+00
  0.00000000E+00  0.00000000E+00  0.00000000E+00
  0.00000000E+00  0.00000000E+00  0.00000000E+00
  0.00000000E+00  0.00000000E+00  0.00000000E+00
  0.00000000E+00  0.00000000E+00  0.00000000E+00
  0.00000000E+00  0.00000000E+00  0.00000000E+00
  0.00000000E+00  0.00000000E+00  0.00000000E+00
  0.00000000E+00  0.00000000E+00  0.00000000E+00
  0.00000000E+00  0.00000000E+00  0.00000000E+00
  0.00000000E+00  0.00000000E+00  0.00000000E+00
  0.00000000E+00  0.00000000E+00  0.00000000E+00
  0.00000000E+00  0.00000000E+00  0.00000000E+00
  0.00000000E+00  0.00000000E+00  0.00000000E+00
  0.00000000E+00  0.00000000E+00  0.00000000E+00
  0.00000000E+00  0.00000000E+00  0.00000000E+00
  0.00000000E+00  0.00000000E+00  0.00000000E+00
