CONTCARbulk
1.0
        7.2701001167         0.0000000000         0.0000000000
        0.0000000000         7.2701001167         0.0000000000
        0.0000000000         0.0000000000         7.2701001167
   Cu H
   32 1
Direct
     0.000000000         0.000000000         0.000000000
     0.000000000         0.250000000         0.250000000
     0.250000000         0.000000000         0.250000000
     0.250000000         0.250000000         0.000000000
     0.500000000         0.000000000         0.000000000
     0.500000000         0.250000000         0.250000000
     0.750000016         0.000000000         0.250000000
     0.750000016         0.250000000         0.000000000
     0.000000000         0.500000000         0.000000000
     0.000000000         0.750000016         0.250000000
     0.250000000         0.500000000         0.250000000
     0.250000000         0.750000016         0.000000000
     0.500000000         0.500000000         0.000000000
     0.500000000         0.750000016         0.250000000
     0.750000016         0.500000000         0.250000000
     0.750000016         0.750000016         0.000000000
     0.000000000         0.000000000         0.500000000
     0.000000000         0.250000000         0.750000016
     0.250000000         0.000000000         0.750000016
     0.250000000         0.250000000         0.500000000
     0.500000000         0.000000000         0.500000000
     0.500000000         0.250000000         0.750000016
     0.750000016         0.000000000         0.750000016
     0.750000016         0.250000000         0.500000000
     0.000000000         0.500000000         0.500000000
     0.000000000         0.750000016         0.750000016
     0.250000000         0.500000000         0.750000016
     0.250000000         0.750000016         0.500000000
     0.500000000         0.500000000         0.500000000
     0.500000000         0.750000016         0.750000016
     0.750000016         0.500000000         0.750000016
     0.750000016         0.750000016         0.500000000
     0.51                0.49                0.51


