3x3                                     
   1.00000000000000     
     7.7111001014999996    0.0000000000000000    0.0000000000000000
     0.0000000000000000    7.7111001014999996    0.0000000000000000
     0.0000000000000000    0.0000000000000000   23.4526004790999991
   Cu    H
    36   1
Selective dynamics
Direct
  0.1666700010000000  0.1666700010000000  0.0000000000000000   F   F   F
  0.5000000000000000  0.1666700010000000  0.0000000000000000   F   F   F
  0.8333299840000024  0.1666700010000000  0.0000000000000000   F   F   F
  0.1666700010000000  0.5000000000000000  0.0000000000000000   F   F   F
  0.5000000000000000  0.5000000000000000  0.0000000000000000   F   F   F
  0.8333299840000024  0.5000000000000000  0.0000000000000000   F   F   F
  0.1666700010000000  0.8333299840000024  0.0000000000000000   F   F   F
  0.5000000000000000  0.8333299840000024  0.0000000000000000   F   F   F
  0.8333299840000024  0.8333299840000024  0.0000000000000000   F   F   F
  0.0000000000000000  0.0000000000000000  0.0775000000000006   F   F   F
  0.3333300150000014  0.0000000000000000  0.0775000000000006   F   F   F
  0.6666700469999967  0.0000000000000000  0.0775000000000006   F   F   F
  0.0000000000000000  0.3333300150000014  0.0775000000000006   F   F   F
  0.3333300150000014  0.3333300150000014  0.0775000000000006   F   F   F
  0.6666700469999967  0.3333300150000014  0.0775000000000006   F   F   F
  0.0000000000000000  0.6666700469999967  0.0775000000000006   F   F   F
  0.3333300150000014  0.6666700469999967  0.0775000000000006   F   F   F
  0.6666700469999967  0.6666700469999967  0.0775000000000006   F   F   F
  0.1666700010000000  0.1666700010000000  0.1554706193999991   T   T   T
  0.5000000000000000  0.1666700010000000  0.1554706193999991   T   T   T
  0.8333299840000024  0.1666700010000000  0.1554706193999991   T   T   T
  0.1666700010000000  0.5000000000000000  0.1554706193999991   T   T   T
  0.5000000000000000  0.5000000000000000  0.1554706193999991   T   T   T
  0.8333299840000024  0.5000000000000000  0.1554706193999991   T   T   T
  0.1666700010000000  0.8333299840000024  0.1554706193999991   T   T   T
  0.5000000000000000  0.8333299840000024  0.1554706193999991   T   T   T
  0.8333299840000024  0.8333299840000024  0.1554706193999991   T   T   T
  0.0000000000000000  0.0000000000000000  0.2309401930000021   T   T   T
  0.3333300150000014  0.0000000000000000  0.2309401930000021   T   T   T
  0.6666700469999967  0.0000000000000000  0.2309401930000021   T   T   T
  0.0000000000000000  0.3333300150000014  0.2309401930000021   T   T   T
  0.3333300150000014  0.3333300150000014  0.2309401930000021   T   T   T
  0.6666700469999967  0.3333300150000014  0.2309401930000021   T   T   T
  0.0000000000000000  0.6666700469999967  0.2309401930000021   T   T   T
  0.3333300150000014  0.6666700469999967  0.2309401930000021   T   T   T
  0.6666700469999967  0.6666700469999967  0.2309401930000021   T   T   T
  0.1666700010000000  0.1666700010000000  0.26 T T T 
  0.00000000E+00  0.00000000E+00  0.00000000E+00
  0.00000000E+00  0.00000000E+00  0.00000000E+00
  0.00000000E+00  0.00000000E+00  0.00000000E+00
  0.00000000E+00  0.00000000E+00  0.00000000E+00
  0.00000000E+00  0.00000000E+00  0.00000000E+00
  0.00000000E+00  0.00000000E+00  0.00000000E+00
  0.00000000E+00  0.00000000E+00  0.00000000E+00
  0.00000000E+00  0.00000000E+00  0.00000000E+00
  0.00000000E+00  0.00000000E+00  0.00000000E+00
  0.00000000E+00  0.00000000E+00  0.00000000E+00
  0.00000000E+00  0.00000000E+00  0.00000000E+00
  0.00000000E+00  0.00000000E+00  0.00000000E+00
  0.00000000E+00  0.00000000E+00  0.00000000E+00
  0.00000000E+00  0.00000000E+00  0.00000000E+00
  0.00000000E+00  0.00000000E+00  0.00000000E+00
  0.00000000E+00  0.00000000E+00  0.00000000E+00
  0.00000000E+00  0.00000000E+00  0.00000000E+00
  0.00000000E+00  0.00000000E+00  0.00000000E+00
  0.00000000E+00  0.00000000E+00  0.00000000E+00
  0.00000000E+00  0.00000000E+00  0.00000000E+00
  0.00000000E+00  0.00000000E+00  0.00000000E+00
  0.00000000E+00  0.00000000E+00  0.00000000E+00
  0.00000000E+00  0.00000000E+00  0.00000000E+00
  0.00000000E+00  0.00000000E+00  0.00000000E+00
  0.00000000E+00  0.00000000E+00  0.00000000E+00
  0.00000000E+00  0.00000000E+00  0.00000000E+00
  0.00000000E+00  0.00000000E+00  0.00000000E+00
  0.00000000E+00  0.00000000E+00  0.00000000E+00
  0.00000000E+00  0.00000000E+00  0.00000000E+00
  0.00000000E+00  0.00000000E+00  0.00000000E+00
  0.00000000E+00  0.00000000E+00  0.00000000E+00
  0.00000000E+00  0.00000000E+00  0.00000000E+00
  0.00000000E+00  0.00000000E+00  0.00000000E+00
  0.00000000E+00  0.00000000E+00  0.00000000E+00
  0.00000000E+00  0.00000000E+00  0.00000000E+00
  0.00000000E+00  0.00000000E+00  0.00000000E+00
