Pt111_danbao.CONTCAR\(0\0\1)
1.0
        4.8807001114         0.0000000000         0.0000000000
        2.4403500557         4.2268102847         0.0000000000
        0.0000000000         0.0000000000        24.9022998810
   Pt
   12
S
Direct
0.000000000	0.000000000	0.000000000	F	F	F
0.333330003	0.333330028	0.000000000	F	F	F
0.666669962	0.666670040	0.000000000	F	F	F
0.666670005	0.000000000	0.092390003	F	F	F
-0.000000016	0.333330028	0.092390003	F	F	F
0.333339967	0.666670040	0.092390003	F	F	F
0.333329995	0.000000000	0.184780005	T	T	T
0.666659950	0.333330028	0.184780005	T	T	T
-0.000000018	0.666670040	0.184780005	T	T	T
0.000000000	0.000000000	0.277170008	T	T	T
0.333330003	0.333330028	0.277170008	T	T	T
0.666669962	0.666670040	0.277170008	T	T	T


