HH
1
15.0 0.0 0.0
0.0 15.0 0.0
0.0 0.0 15.0
H
2
C
0.0 0.0 0.0 
1.0 0.0 0.0 
