Cu   Ag
   1.00000000000000     
   7.7123999595999999   0.0000000000000000   0.0000000000000000
  -3.8561999798000000   6.6791342891000003   0.0000000000000000
   0.0000000000000000   0.0000000000000000  24.2971992493000002
Cu   Ag
36  1  
Selective dynamics
Direct
  0.3333305525354078  0.6666695204645947  0.9999811661402802 F F F
  0.3333315515646831  0.9999996753393106  0.9999812719808432 F F F
  0.0000003386606906  0.6666685074353182  0.9999812719808432 F F F
  0.0000010634884262  0.9999989365115738  0.9999813717773448 F F F
  0.3333337411815336  0.3333335808257800  0.9999816025010873 F F F
  0.6666664531742228  0.6666663118184672  0.9999816025010873 F F F
  0.6666655004715949  0.9999985534387008  0.9999816611816286 F F F
  0.0000014405612987  0.3333345195284068  0.9999816611816286 F F F
  0.6666686380171285  0.3333313919828740  0.9999818692555492 F F F
  0.4444423232092660  0.2222230080111487  0.0865400182352687 F F F
  0.7777769979888518  0.5555576737907373  0.0865400182352687 F F F
  0.1111084043854262  0.5555577238153546  0.0865400267559835 F F F
  0.4444422781846455  0.8888916426145741  0.0865400267559835 F F F
  0.4444415944884668  0.5555583925115357  0.0865401540706898 F F F
  0.7777788178657588  0.2222211671342436  0.0865401715436818 F F F
  0.1111094507313268  0.8888906112686712  0.0865404629002100 F F F
  0.1111099140269047  0.2222221875401758  0.0865406647606477 F F F
  0.7777778334598224  0.8888901429730964  0.0865406647606477 F F F
  0.2222247610768638  0.1111073324902161  0.1719706077544594 T T T
  0.8895940045132825  0.7781944832998257  0.1728883719206221 T T T
  0.8895951437529672  0.1113942497835401  0.1728878033966593 T T T
  0.2219370619094977  0.7781942391172318  0.1728875349219492 T T T
  0.5551417706715348  0.4437377469482749  0.1728888826105799 T T T
  0.5551423435638814  0.1113925186101693  0.1728876797096474 T T T
  0.8888922697482088  0.4444416510510110  0.1734715625820195 T T T
  0.2219382039589385  0.4437377717249649  0.1728882480616006 T T T
  0.5555591983628587  0.7777755154167267  0.1727627692930965 T T T
  0.3335333830538962  0.6667670796950949  0.2580507594248781 T T T
  0.3351745703524295  0.9981614067372740  0.2579795932697114 T T T
  0.9999896173798700  0.6666455052643926  0.2591234825384913 T T T
  0.3351741622367064  0.3370103425679183  0.2579795664036834 T T T
  0.6665678573490706  0.6667649076436194  0.2580520098727675 T T T
  0.9963223301251920  0.9981604870774970  0.2579797971274257 T T T
  0.6665700557573511  0.9997983585896660  0.2580513566995842 T T T
  0.9999917368304100  0.3333394730735858  0.2591251282493222 T T T
  0.6666895256717978  0.3333394775942413  0.2591239775798396 T T T
  0.2222176053434956  0.1111144882235843  0.3446573949938274 T T T
