Pd
   1.00000000000000     
   7.9120001792999997   0.0000000000000000   0.0000000000000000
   0.0000000000000000   7.9120001792999997   0.0000000000000000
   0.0000000000000000   0.0000000000000000  23.9340000153000005
Pd
33  
Selective dynamics
Direct
  0.0000000000000000  0.2500000000000000  0.0000000000000000 F F F
  0.2500000000000000  0.0000000000000000  0.0000000000000000 F F F
  0.5000000000000000  0.2500000000000000  0.0000000000000000 F F F
  0.7500000000000000  0.0000000000000000  0.0000000000000000 F F F
  0.0000000000000000  0.7500000000000000  0.0000000000000000 F F F
  0.2500000000000000  0.5000000000000000  0.0000000000000000 F F F
  0.5000000000000000  0.7500000000000000  0.0000000000000000 F F F
  0.7500000000000000  0.5000000000000000  0.0000000000000000 F F F
  0.0000000000000000  0.0000000000000000  0.0826399999999978 F F F
  0.2500000000000000  0.2500000000000000  0.0826399999999978 F F F
  0.5000000000000000  0.0000000000000000  0.0826399999999978 F F F
  0.7500000000000000  0.2500000000000000  0.0826399999999978 F F F
  0.0000000000000000  0.5000000000000000  0.0826399999999978 F F F
  0.2500000000000000  0.7500000000000000  0.0826399999999978 F F F
  0.5000000000000000  0.5000000000000000  0.0826399999999978 F F F
  0.7500000000000000  0.7500000000000000  0.0826399999999978 F F F
  0.0000000000000000  0.2500000000000000  0.1646515294480010 T T T
  0.2494341081646920  0.9996895285569990  0.1643947809026540 T T T
  0.5000000000000000  0.2500000000000000  0.1656572867897670 T T T
  0.7505658918353080  0.9996895285569990  0.1643947809026540 T T T
  0.0000000000000000  0.7500000000000000  0.1640826978592000 T T T
  0.2494341081646920  0.5003104714430010  0.1643947809026540 T T T
  0.5000000000000000  0.7500000000000000  0.1649824389009710 T T T
  0.7505658918353080  0.5003104714430010  0.1643947809026540 T T T
  0.0000000000000000  0.9981390542240400  0.2462425208662890 T T T
  0.2424004757390530  0.2500000000000000  0.2460558724925190 T T T
  0.5000000000000000  0.9944570670113110  0.2459998721895150 T T T
  0.7575995242609470  0.2500000000000000  0.2460558724925190 T T T
  0.0000000000000000  0.5018609457759600  0.2462425208662890 T T T
  0.2460824629517830  0.7500000000000000  0.2461865205632850 T T T
  0.7539175370482170  0.7500000000000000  0.2461865205632850 T T T
  0.5000000000000000  0.5055429329886890  0.2459998721895150 T T T
  0.5000000000000000  0.1666666666666790  0.3168738910170320 T T T
