SYSTEM=Pt FCC mian xin li fang

ISATART=0
ICHARGE=2

ISMEAR=0
SIGMA=0.01 #need test

ISPIN=0
ENCUT=500

IBRION=2
ISIF=3
#some parameter not set
EDIFF=1E-5
EDIFFG=1E-4
NELM=200
NSW=100
POTIM=0.1
LEREAL=Auto


