C    N    H 
   1.00000000000000     
  20.0000000000000000   0.0000000000000000   0.0000000000000000
   0.0000000000000000  20.0000000000000000   0.0000000000000000
   0.0000000000000000   0.0000000000000000  20.0000000000000000
C    N    H 
1  1  1  
Direct
  0.4999350110937750  0.5000000000000000  0.4804713892848870  
  0.5385667335674360  0.5000000000000000  0.5000640266963360  
  0.4641649220054590  0.5000000000000000  0.5167979173521220  
