HCN
1.0
       20.0000000000         0.0000000000         0.0000000000
        0.0000000000        20.0000000000         0.0000000000
        0.0000000000         0.0000000000        20.0000000000
    C    N    H
    1    1    1
D
0.5 0.5 0.5
0.558  0.50 0.50
0.446 0.5 0.5


