Si
   1.00000000000000     
  10.8951956669074992   0.0000000000000000   0.0000000000000000
   0.0000000000000000  10.8951956669074992   0.0000000000000000
   0.0000000000000000   0.0000000000000000  10.8951956669074992
Si
63  
Direct
  0.1155373087273200  0.1155373087273200  0.1155373087273200  
  0.0003706949791452  0.2462173784904694  0.2462173784904694  
  0.2462173784904694  0.2462173784904694  0.0003706949791452  
  0.2462173784904694  0.0003706949791452  0.2462173784904694  
  0.3736524852397725  0.1248766937039709  0.3736524852397725  
  0.1248766937039709  0.3736524852397725  0.3736524852397725  
  0.3736524852397725  0.3736524852397725  0.1248766937039709  
  0.5000000000000000 -0.0000000000000000 -0.0000000000000000  
  0.4998381196271013  0.2494683943668446  0.2494683943668446  
  0.7537825995095288  0.2462173784904694  0.9996293050208550  
  0.7537825995095288  0.9996293050208550  0.2462173784904694  
  0.8752748859509929  0.1247251030490095  0.3742467755759542  
  0.6257532244240458  0.1247251030490095  0.1247251030490095  
  0.6250456459558404  0.3749543540441596  0.3749543540441596  
  0.8752748859509929  0.3742467755759542  0.1247251030490095  
 -0.0000000000000000  0.5000000000000000 -0.0000000000000000  
  0.9996293050208550  0.7537825995095288  0.2462173784904694  
  0.2462173784904694  0.7537825995095288  0.9996293050208550  
  0.2494683943668446  0.4998381196271013  0.2494683943668446  
  0.3749543540441596  0.6250456459558404  0.3749543540441596  
  0.1247251030490095  0.6257532244240458  0.1247251030490095  
  0.1247251030490095  0.8752748859509929  0.3742467755759542  
  0.3742467755759542  0.8752748859509929  0.1247251030490095  
  0.5000000000000000  0.5000000000000000 -0.0000000000000000  
  0.5001618803728988  0.7505315836331535  0.2494683943668446  
  0.7537825995095288  0.7537825995095288  0.0003706949791452  
  0.7505315836331535  0.5001618803728988  0.2494683943668446  
  0.8751232952960315  0.6263475147602275  0.3736524852397725  
  0.6263475147602275  0.6263475147602275  0.1248766937039709  
  0.6263475147602275  0.8751232952960315  0.3736524852397725  
  0.8844626802726827  0.8844626802726827  0.1155373087273200  
 -0.0000000000000000 -0.0000000000000000  0.5000000000000000  
  0.9996293050208550  0.2462173784904694  0.7537825995095288  
  0.2494683943668446  0.2494683943668446  0.4998381196271013  
  0.2462173784904694  0.9996293050208550  0.7537825995095288  
  0.3742467755759542  0.1247251030490095  0.8752748859509929  
  0.1247251030490095  0.1247251030490095  0.6257532244240458  
  0.1247251030490095  0.3742467755759542  0.8752748859509929  
  0.3749543540441596  0.3749543540441596  0.6250456459558404  
  0.5000000000000000 -0.0000000000000000  0.5000000000000000  
  0.5001618803728988  0.2494683943668446  0.7505315836331535  
  0.7505315836331535  0.2494683943668446  0.5001618803728988  
  0.7537825995095288  0.0003706949791452  0.7537825995095288  
  0.8844626802726827  0.1155373087273200  0.8844626802726827  
  0.6263475147602275  0.1248766937039709  0.6263475147602275  
  0.6263475147602275  0.3736524852397725  0.8751232952960315  
  0.8751232952960315  0.3736524852397725  0.6263475147602275  
 -0.0000000000000000  0.5000000000000000  0.5000000000000000  
  0.0003706949791452  0.7537825995095288  0.7537825995095288  
  0.2494683943668446  0.7505315836331535  0.5001618803728988  
  0.2494683943668446  0.5001618803728988  0.7505315836331535  
  0.3736524852397725  0.6263475147602275  0.8751232952960315  
  0.1248766937039709  0.6263475147602275  0.6263475147602275  
  0.1155373087273200  0.8844626802726827  0.8844626802726827  
  0.3736524852397725  0.8751232952960315  0.6263475147602275  
  0.5000000000000000  0.5000000000000000  0.5000000000000000  
  0.4998381196271013  0.7505315836331535  0.7505315836331535  
  0.7505315836331535  0.7505315836331535  0.4998381196271013  
  0.7505315836331535  0.4998381196271013  0.7505315836331535  
  0.8752748859509929  0.6257532244240458  0.8752748859509929  
  0.6250456459558404  0.6250456459558404  0.6250456459558404  
  0.6257532244240458  0.8752748859509929  0.8752748859509929  
  0.8752748859509929  0.8752748859509929  0.6257532244240458  
