Cu
1.0
        3.6147000790         0.0000000000         0.0000000000
        0.0000000000         3.6147000790         0.0000000000
        0.0000000000         0.0000000000         3.6147000790
   Cu
    4
Direct
     0.000000000         0.000000000         0.000000000
    -0.000000000         0.500000000         0.500000000
     0.500000000        -0.000000000         0.500000000
     0.500000000         0.500000000         0.000000000
