C    N    H 
   1.00000000000000     
  20.0000000000000000   0.0000000000000000   0.0000000000000000
   0.0000000000000000  20.0000000000000000   0.0000000000000000
   0.0000000000000000   0.0000000000000000  20.0000000000000000
C    N    H 
1  1  1  
Direct
  0.5000000000000000  0.5000000000000000  0.4414141678546500  
  0.5000000000000000  0.5000000000000000  0.5001920800889998  
  0.5000000000000000  0.5000000000000000  0.5503937520563474  
