CONTCAR\(1\0\0)
1.0
        7.9120001793         0.0000000000         0.0000000000
        0.0000000000         7.9120001793         0.0000000000
        0.0000000000         0.0000000000        23.9340000153
   Pd
   32
S
Direct
0.0000000	0.2500000	0.0000000	F 	F	F
0.2500000	0.0000000	0.0000000	F 	F	F
0.5000000	0.2500000	0.0000000	F 	F	F
0.7500000	0.0000000	0.0000000	F 	F	F
0.0000000	0.7500000	0.0000000	F 	F	F
0.2500000	0.5000000	0.0000000	F 	F	F
0.5000000	0.7500000	0.0000000	F 	F	F
0.7500000	0.5000000	0.0000000	F 	F	F
0.0000000	0.0000000	0.0826400	F 	F	F
0.2500000	0.2500000	0.0826400	F 	F	F
0.5000000	0.0000000	0.0826400	F 	F	F
0.7500000	0.2500000	0.0826400	F 	F	F
0.0000000	0.5000000	0.0826400	F 	F	F
0.2500000	0.7500000	0.0826400	F 	F	F
0.5000000	0.5000000	0.0826400	F 	F	F
0.7500000	0.7500000	0.0826400	F 	F	F
0.0000000	0.2500000	0.1652900	T	T	T
0.2500000	0.0000000	0.1652900	T	T	T
0.5000000	0.2500000	0.1652900	T	T	T
0.7500000	0.0000000	0.1652900	T	T	T
0.0000000	0.7500000	0.1652900	T	T	T
0.2500000	0.5000000	0.1652900	T	T	T
0.5000000	0.7500000	0.1652900	T	T	T
0.7500000	0.5000000	0.1652900	T	T	T
0.0000000	0.0000000	0.2479300	T	T	T
0.2500000	0.2500000	0.2479300	T	T	T
0.5000000	0.0000000	0.2479300	T	T	T
0.7500000	0.2500000	0.2479300	T	T	T
0.0000000	0.5000000	0.2479300	T	T	T
0.2500000	0.7500000	0.2479300	T	T	T
0.5000000	0.5000000	0.2479300	T	T	T
0.7500000	0.7500000	0.2479300	T	T	T

