Pd
   1.00000000000000     
   7.9120001792999997   0.0000000000000000   0.0000000000000000
   0.0000000000000000   7.9120001792999997   0.0000000000000000
   0.0000000000000000   0.0000000000000000  23.9340000153000005
Pd
33  
Selective dynamics
Direct
  0.0000000000000000  0.2500000000000000  0.0000000000000000 F F F
  0.2500000000000000  0.0000000000000000  0.0000000000000000 F F F
  0.5000000000000000  0.2500000000000000  0.0000000000000000 F F F
  0.7500000000000000  0.0000000000000000  0.0000000000000000 F F F
  0.0000000000000000  0.7500000000000000  0.0000000000000000 F F F
  0.2500000000000000  0.5000000000000000  0.0000000000000000 F F F
  0.5000000000000000  0.7500000000000000  0.0000000000000000 F F F
  0.7500000000000000  0.5000000000000000  0.0000000000000000 F F F
  0.0000000000000000  0.0000000000000000  0.0826399999999978 F F F
  0.2500000000000000  0.2500000000000000  0.0826399999999978 F F F
  0.5000000000000000  0.0000000000000000  0.0826399999999978 F F F
  0.7500000000000000  0.2500000000000000  0.0826399999999978 F F F
  0.0000000000000000  0.5000000000000000  0.0826399999999978 F F F
  0.2500000000000000  0.7500000000000000  0.0826399999999978 F F F
  0.5000000000000000  0.5000000000000000  0.0826399999999978 F F F
  0.7500000000000000  0.7500000000000000  0.0826399999999978 F F F
  0.0000000000000000  0.2500000000000000  0.1639805507088396 T T T
  0.2492337388230624  0.0007662611769376  0.1645811668325980 T T T
  0.5000000000000000  0.2500000000000000  0.1651871589902517 T T T
  0.7507662611769377  0.0007662611769376  0.1645811668325980 T T T
  0.0000000000000000  0.7500000000000000  0.1651871589902517 T T T
  0.2492337388230624  0.4992337388230623  0.1645811668325980 T T T
  0.5000000000000000  0.7500000000000000  0.1659660074267604 T T T
  0.7507662611769377  0.4992337388230623  0.1645811668325980 T T T
  0.0000000000000000  0.0035042097792452  0.2465810031251174 T T T
  0.2464957902207549  0.2500000000000000  0.2465810031251174 T T T
  0.5000000000000000  0.0088353378542304  0.2462450013071579 T T T
  0.7535042097792450  0.2500000000000000  0.2465810031251174 T T T
  0.0000000000000000  0.4964957902207549  0.2465810031251174 T T T
  0.2411646621457695  0.7500000000000000  0.2462450013071579 T T T
  0.7588353378542303  0.7500000000000000  0.2462450013071579 T T T
  0.5000000000000000  0.4911646621457698  0.2462450013071579 T T T
  0.5000000000000000  0.7500000000000000  0.3168930944891559 T T T
