Mn2 F4                                  
   1.00000000000000     
     4.9373640310648534   -0.0000000000000000    0.0000000000000000
    -0.0000000000000000    4.9373640310648534    0.0000000000000000
     0.0000000000000000    0.0000000000000000    3.3280598600101552
   Mn   F 
     2     4
Direct
  0.0000000000000000  0.0000000000000000  0.0000000000000000
  0.5000000000000000  0.5000000000000000  0.5000000000000000
  0.1947175103841891  0.8052824896158109  0.5000000000000000
  0.8052824896158109  0.1947175103841891  0.5000000000000000
  0.6947175103841891  0.6947175103841891 -0.0000000000000000
  0.3052824896158108  0.3052824896158108  0.0000000000000000
 
  0.00000000E+00  0.00000000E+00  0.00000000E+00
  0.00000000E+00  0.00000000E+00  0.00000000E+00
  0.00000000E+00  0.00000000E+00  0.00000000E+00
  0.00000000E+00  0.00000000E+00  0.00000000E+00
  0.00000000E+00  0.00000000E+00  0.00000000E+00
  0.00000000E+00  0.00000000E+00  0.00000000E+00
