POSCAR.mp-29145_H3N
1.0
       20.4654006958         0.0000000000         0.0000000000
        0.0000000000        20.4654006958         0.0000000000
        0.0000000000         0.0000000000        20.4654006958
    H    N
    3    1
Cartesian
     5.636990070         6.966627121         6.500220776
     6.500220776         5.636990070         6.966627121
     6.966627121         6.500220776         5.636990070
     6.149034500         6.149034500         6.149034500

