C    N    H 
   1.00000000000000     
  20.0000000000000000   0.0000000000000000   0.0000000000000000
   0.0000000000000000  20.0000000000000000   0.0000000000000000
   0.0000000000000000   0.0000000000000000  20.0000000000000000
C    N    H 
1  1  1  
Direct
  0.4999512583203300  0.5000000000000000  0.4707070839273300  
  0.5289250501755800  0.5000000000000000  0.5000960400445040  
  0.4731236915040920  0.5000000000000000  0.5251968760281830  
