C    N    H 
   1.00000000000000     
  20.0000000000000000   0.0000000000000000   0.0000000000000000
   0.0000000000000000  20.0000000000000000   0.0000000000000000
   0.0000000000000000   0.0000000000000000  20.0000000000000000
C    N    H 
1  1  1  
Direct
  0.4999675055468840  0.5000000000000000  0.4609427785697730  
  0.5192833667837250  0.5000000000000000  0.5001280533926720  
  0.4820824610027260  0.5000000000000000  0.5335958347042440  
